 !*** INPUT generated by FMOPhore, Copyright "©" reserved to Peter Ezzat Girgis Fahmy Ibrahim. ***
 $CONTRL RUNTYP=ENERGY NPRINT=-5 ISPHER=-1 MAXIT=50 $END
 $SYSTEM MWORDS=29 $END
 $GDDI NGROUP=1 $END
 $INTGRL NINTIC=-9000000 $END
 $SCF DIRSCF=.TRUE. NPUNCH=0 $END
 $BASIS GBASIS=DFTB $END
 $PCM SOLVNT=WATER ICOMP=2 ICAV=1 IDISP=1 IFMO=-1 $END
 $PCMCAV RADII=SUAHF $END
 $TESCAV NTSALL=60 $END
 $DFTB
   SCC=.TRUE. DFTB3=.TRUE. DAMPXH=.TRUE. DAMPEX=4.00 DISP=UFF
 $END
 $FMOPRP
    NAODIR=200
    NGRFMO(1)=1, 1, 0, 0, 0,   0, 0, 0, 0, 0
    IPIEDA=1
    NPRINT=9
    modorb=3
 $END
 $DFTBSK
   Br Br /software/gamess/auxdata/DFTB/3ob-3-1/Br-Br.skf
   Br C /software/gamess/auxdata/DFTB/3ob-3-1/Br-C.skf
   Br Ca /software/gamess/auxdata/DFTB/3ob-3-1/Br-Ca.skf
   Br Cl /software/gamess/auxdata/DFTB/3ob-3-1/Br-Cl.skf
   Br F /software/gamess/auxdata/DFTB/3ob-3-1/Br-F.skf
   Br H /software/gamess/auxdata/DFTB/3ob-3-1/Br-H.skf
   Br I /software/gamess/auxdata/DFTB/3ob-3-1/Br-I.skf
   Br K /software/gamess/auxdata/DFTB/3ob-3-1/Br-K.skf
   Br Mg /software/gamess/auxdata/DFTB/3ob-3-1/Br-Mg.skf
   Br N /software/gamess/auxdata/DFTB/3ob-3-1/Br-N.skf
   Br Na /software/gamess/auxdata/DFTB/3ob-3-1/Br-Na.skf
   Br O /software/gamess/auxdata/DFTB/3ob-3-1/Br-O.skf
   Br P /software/gamess/auxdata/DFTB/3ob-3-1/Br-P.skf
   Br S /software/gamess/auxdata/DFTB/3ob-3-1/Br-S.skf
   Br Zn /software/gamess/auxdata/DFTB/3ob-3-1/Br-Zn.skf
   C Br /software/gamess/auxdata/DFTB/3ob-3-1/C-Br.skf
   C C /software/gamess/auxdata/DFTB/3ob-3-1/C-C.skf
   C Ca /software/gamess/auxdata/DFTB/3ob-3-1/C-Ca.skf
   C Cl /software/gamess/auxdata/DFTB/3ob-3-1/C-Cl.skf
   C F /software/gamess/auxdata/DFTB/3ob-3-1/C-F.skf
   C H /software/gamess/auxdata/DFTB/3ob-3-1/C-H.skf
   C I /software/gamess/auxdata/DFTB/3ob-3-1/C-I.skf
   C K /software/gamess/auxdata/DFTB/3ob-3-1/C-K.skf
   C Mg /software/gamess/auxdata/DFTB/3ob-3-1/C-Mg.skf
   C N /software/gamess/auxdata/DFTB/3ob-3-1/C-N.skf
   C Na /software/gamess/auxdata/DFTB/3ob-3-1/C-Na.skf
   C O /software/gamess/auxdata/DFTB/3ob-3-1/C-O.skf
   C P /software/gamess/auxdata/DFTB/3ob-3-1/C-P.skf
   C S /software/gamess/auxdata/DFTB/3ob-3-1/C-S.skf
   C Zn /software/gamess/auxdata/DFTB/3ob-3-1/C-Zn.skf
   Ca Br /software/gamess/auxdata/DFTB/3ob-3-1/Ca-Br.skf
   Ca C /software/gamess/auxdata/DFTB/3ob-3-1/Ca-C.skf
   Ca Ca /software/gamess/auxdata/DFTB/3ob-3-1/Ca-Ca.skf
   Ca Cl /software/gamess/auxdata/DFTB/3ob-3-1/Ca-Cl.skf
   Ca F /software/gamess/auxdata/DFTB/3ob-3-1/Ca-F.skf
   Ca H /software/gamess/auxdata/DFTB/3ob-3-1/Ca-H.skf
   Ca I /software/gamess/auxdata/DFTB/3ob-3-1/Ca-I.skf
   Ca K /software/gamess/auxdata/DFTB/3ob-3-1/Ca-K.skf
   Ca Mg /software/gamess/auxdata/DFTB/3ob-3-1/Ca-Mg.skf
   Ca N /software/gamess/auxdata/DFTB/3ob-3-1/Ca-N.skf
   Ca Na /software/gamess/auxdata/DFTB/3ob-3-1/Ca-Na.skf
   Ca O /software/gamess/auxdata/DFTB/3ob-3-1/Ca-O.skf
   Ca P /software/gamess/auxdata/DFTB/3ob-3-1/Ca-P.skf
   Ca S /software/gamess/auxdata/DFTB/3ob-3-1/Ca-S.skf
   Ca Zn /software/gamess/auxdata/DFTB/3ob-3-1/Ca-Zn.skf
   Cl Br /software/gamess/auxdata/DFTB/3ob-3-1/Cl-Br.skf
   Cl C /software/gamess/auxdata/DFTB/3ob-3-1/Cl-C.skf
   Cl Ca /software/gamess/auxdata/DFTB/3ob-3-1/Cl-Ca.skf
   Cl Cl /software/gamess/auxdata/DFTB/3ob-3-1/Cl-Cl.skf
   Cl F /software/gamess/auxdata/DFTB/3ob-3-1/Cl-F.skf
   Cl H /software/gamess/auxdata/DFTB/3ob-3-1/Cl-H.skf
   Cl I /software/gamess/auxdata/DFTB/3ob-3-1/Cl-I.skf
   Cl K /software/gamess/auxdata/DFTB/3ob-3-1/Cl-K.skf
   Cl Mg /software/gamess/auxdata/DFTB/3ob-3-1/Cl-Mg.skf
   Cl N /software/gamess/auxdata/DFTB/3ob-3-1/Cl-N.skf
   Cl Na /software/gamess/auxdata/DFTB/3ob-3-1/Cl-Na.skf
   Cl O /software/gamess/auxdata/DFTB/3ob-3-1/Cl-O.skf
   Cl P /software/gamess/auxdata/DFTB/3ob-3-1/Cl-P.skf
   Cl S /software/gamess/auxdata/DFTB/3ob-3-1/Cl-S.skf
   Cl Zn /software/gamess/auxdata/DFTB/3ob-3-1/Cl-Zn.skf
   F Br /software/gamess/auxdata/DFTB/3ob-3-1/F-Br.skf
   F C /software/gamess/auxdata/DFTB/3ob-3-1/F-C.skf
   F Ca /software/gamess/auxdata/DFTB/3ob-3-1/F-Ca.skf
   F Cl /software/gamess/auxdata/DFTB/3ob-3-1/F-Cl.skf
   F F /software/gamess/auxdata/DFTB/3ob-3-1/F-F.skf
   F H /software/gamess/auxdata/DFTB/3ob-3-1/F-H.skf
   F I /software/gamess/auxdata/DFTB/3ob-3-1/F-I.skf
   F K /software/gamess/auxdata/DFTB/3ob-3-1/F-K.skf
   F Mg /software/gamess/auxdata/DFTB/3ob-3-1/F-Mg.skf
   F N /software/gamess/auxdata/DFTB/3ob-3-1/F-N.skf
   F Na /software/gamess/auxdata/DFTB/3ob-3-1/F-Na.skf
   F O /software/gamess/auxdata/DFTB/3ob-3-1/F-O.skf
   F P /software/gamess/auxdata/DFTB/3ob-3-1/F-P.skf
   F S /software/gamess/auxdata/DFTB/3ob-3-1/F-S.skf
   F Zn /software/gamess/auxdata/DFTB/3ob-3-1/F-Zn.skf
   H Br /software/gamess/auxdata/DFTB/3ob-3-1/H-Br.skf
   H C /software/gamess/auxdata/DFTB/3ob-3-1/H-C.skf
   H Ca /software/gamess/auxdata/DFTB/3ob-3-1/H-Ca.skf
   H Cl /software/gamess/auxdata/DFTB/3ob-3-1/H-Cl.skf
   H F /software/gamess/auxdata/DFTB/3ob-3-1/H-F.skf
   H H /software/gamess/auxdata/DFTB/3ob-3-1/H-H.skf
   H I /software/gamess/auxdata/DFTB/3ob-3-1/H-I.skf
   H K /software/gamess/auxdata/DFTB/3ob-3-1/H-K.skf
   H Mg /software/gamess/auxdata/DFTB/3ob-3-1/H-Mg.skf
   H N /software/gamess/auxdata/DFTB/3ob-3-1/H-N.skf
   H Na /software/gamess/auxdata/DFTB/3ob-3-1/H-Na.skf
   H O /software/gamess/auxdata/DFTB/3ob-3-1/H-O.skf
   H P /software/gamess/auxdata/DFTB/3ob-3-1/H-P.skf
   H S /software/gamess/auxdata/DFTB/3ob-3-1/H-S.skf
   H Zn /software/gamess/auxdata/DFTB/3ob-3-1/H-Zn.skf
   I Br /software/gamess/auxdata/DFTB/3ob-3-1/I-Br.skf
   I C /software/gamess/auxdata/DFTB/3ob-3-1/I-C.skf
   I Ca /software/gamess/auxdata/DFTB/3ob-3-1/I-Ca.skf
   I Cl /software/gamess/auxdata/DFTB/3ob-3-1/I-Cl.skf
   I F /software/gamess/auxdata/DFTB/3ob-3-1/I-F.skf
   I H /software/gamess/auxdata/DFTB/3ob-3-1/I-H.skf
   I I /software/gamess/auxdata/DFTB/3ob-3-1/I-I.skf
   I K /software/gamess/auxdata/DFTB/3ob-3-1/I-K.skf
   I Mg /software/gamess/auxdata/DFTB/3ob-3-1/I-Mg.skf
   I N /software/gamess/auxdata/DFTB/3ob-3-1/I-N.skf
   I Na /software/gamess/auxdata/DFTB/3ob-3-1/I-Na.skf
   I O /software/gamess/auxdata/DFTB/3ob-3-1/I-O.skf
   I P /software/gamess/auxdata/DFTB/3ob-3-1/I-P.skf
   I S /software/gamess/auxdata/DFTB/3ob-3-1/I-S.skf
   I Zn /software/gamess/auxdata/DFTB/3ob-3-1/I-Zn.skf
   K Br /software/gamess/auxdata/DFTB/3ob-3-1/K-Br.skf
   K C /software/gamess/auxdata/DFTB/3ob-3-1/K-C.skf
   K Ca /software/gamess/auxdata/DFTB/3ob-3-1/K-Ca.skf
   K Cl /software/gamess/auxdata/DFTB/3ob-3-1/K-Cl.skf
   K F /software/gamess/auxdata/DFTB/3ob-3-1/K-F.skf
   K H /software/gamess/auxdata/DFTB/3ob-3-1/K-H.skf
   K I /software/gamess/auxdata/DFTB/3ob-3-1/K-I.skf
   K K /software/gamess/auxdata/DFTB/3ob-3-1/K-K.skf
   K Mg /software/gamess/auxdata/DFTB/3ob-3-1/K-Mg.skf
   K N /software/gamess/auxdata/DFTB/3ob-3-1/K-N.skf
   K Na /software/gamess/auxdata/DFTB/3ob-3-1/K-Na.skf
   K O /software/gamess/auxdata/DFTB/3ob-3-1/K-O.skf
   K P /software/gamess/auxdata/DFTB/3ob-3-1/K-P.skf
   K S /software/gamess/auxdata/DFTB/3ob-3-1/K-S.skf
   K Zn /software/gamess/auxdata/DFTB/3ob-3-1/K-Zn.skf
   Mg Br /software/gamess/auxdata/DFTB/3ob-3-1/Mg-Br.skf
   Mg C /software/gamess/auxdata/DFTB/3ob-3-1/Mg-C.skf
   Mg Ca /software/gamess/auxdata/DFTB/3ob-3-1/Mg-Ca.skf
   Mg Cl /software/gamess/auxdata/DFTB/3ob-3-1/Mg-Cl.skf
   Mg F /software/gamess/auxdata/DFTB/3ob-3-1/Mg-F.skf
   Mg H /software/gamess/auxdata/DFTB/3ob-3-1/Mg-H.skf
   Mg I /software/gamess/auxdata/DFTB/3ob-3-1/Mg-I.skf
   Mg K /software/gamess/auxdata/DFTB/3ob-3-1/Mg-K.skf
   Mg Mg /software/gamess/auxdata/DFTB/3ob-3-1/Mg-Mg.skf
   Mg N /software/gamess/auxdata/DFTB/3ob-3-1/Mg-N.skf
   Mg Na /software/gamess/auxdata/DFTB/3ob-3-1/Mg-Na.skf
   Mg O /software/gamess/auxdata/DFTB/3ob-3-1/Mg-O.skf
   Mg P /software/gamess/auxdata/DFTB/3ob-3-1/Mg-P.skf
   Mg S /software/gamess/auxdata/DFTB/3ob-3-1/Mg-S.skf
   Mg Zn /software/gamess/auxdata/DFTB/3ob-3-1/Mg-Zn.skf
   N Br /software/gamess/auxdata/DFTB/3ob-3-1/N-Br.skf
   N C /software/gamess/auxdata/DFTB/3ob-3-1/N-C.skf
   N Ca /software/gamess/auxdata/DFTB/3ob-3-1/N-Ca.skf
   N Cl /software/gamess/auxdata/DFTB/3ob-3-1/N-Cl.skf
   N F /software/gamess/auxdata/DFTB/3ob-3-1/N-F.skf
   N H /software/gamess/auxdata/DFTB/3ob-3-1/N-H.skf
   N I /software/gamess/auxdata/DFTB/3ob-3-1/N-I.skf
   N K /software/gamess/auxdata/DFTB/3ob-3-1/N-K.skf
   N Mg /software/gamess/auxdata/DFTB/3ob-3-1/N-Mg.skf
   N N /software/gamess/auxdata/DFTB/3ob-3-1/N-N.skf
   N Na /software/gamess/auxdata/DFTB/3ob-3-1/N-Na.skf
   N O /software/gamess/auxdata/DFTB/3ob-3-1/N-O.skf
   N P /software/gamess/auxdata/DFTB/3ob-3-1/N-P.skf
   N S /software/gamess/auxdata/DFTB/3ob-3-1/N-S.skf
   N Zn /software/gamess/auxdata/DFTB/3ob-3-1/N-Zn.skf
   Na Br /software/gamess/auxdata/DFTB/3ob-3-1/Na-Br.skf
   Na C /software/gamess/auxdata/DFTB/3ob-3-1/Na-C.skf
   Na Ca /software/gamess/auxdata/DFTB/3ob-3-1/Na-Ca.skf
   Na Cl /software/gamess/auxdata/DFTB/3ob-3-1/Na-Cl.skf
   Na F /software/gamess/auxdata/DFTB/3ob-3-1/Na-F.skf
   Na H /software/gamess/auxdata/DFTB/3ob-3-1/Na-H.skf
   Na I /software/gamess/auxdata/DFTB/3ob-3-1/Na-I.skf
   Na K /software/gamess/auxdata/DFTB/3ob-3-1/Na-K.skf
   Na Mg /software/gamess/auxdata/DFTB/3ob-3-1/Na-Mg.skf
   Na N /software/gamess/auxdata/DFTB/3ob-3-1/Na-N.skf
   Na Na /software/gamess/auxdata/DFTB/3ob-3-1/Na-Na.skf
   Na O /software/gamess/auxdata/DFTB/3ob-3-1/Na-O.skf
   Na P /software/gamess/auxdata/DFTB/3ob-3-1/Na-P.skf
   Na S /software/gamess/auxdata/DFTB/3ob-3-1/Na-S.skf
   Na Zn /software/gamess/auxdata/DFTB/3ob-3-1/Na-Zn.skf
   O Br /software/gamess/auxdata/DFTB/3ob-3-1/O-Br.skf
   O C /software/gamess/auxdata/DFTB/3ob-3-1/O-C.skf
   O Ca /software/gamess/auxdata/DFTB/3ob-3-1/O-Ca.skf
   O Cl /software/gamess/auxdata/DFTB/3ob-3-1/O-Cl.skf
   O F /software/gamess/auxdata/DFTB/3ob-3-1/O-F.skf
   O H /software/gamess/auxdata/DFTB/3ob-3-1/O-H.skf
   O I /software/gamess/auxdata/DFTB/3ob-3-1/O-I.skf
   O K /software/gamess/auxdata/DFTB/3ob-3-1/O-K.skf
   O Mg /software/gamess/auxdata/DFTB/3ob-3-1/O-Mg.skf
   O N /software/gamess/auxdata/DFTB/3ob-3-1/O-N.skf
   O Na /software/gamess/auxdata/DFTB/3ob-3-1/O-Na.skf
   O O /software/gamess/auxdata/DFTB/3ob-3-1/O-O.skf
   O P /software/gamess/auxdata/DFTB/3ob-3-1/O-P.skf
   O S /software/gamess/auxdata/DFTB/3ob-3-1/O-S.skf
   O Zn /software/gamess/auxdata/DFTB/3ob-3-1/O-Zn.skf
   P Br /software/gamess/auxdata/DFTB/3ob-3-1/P-Br.skf
   P C /software/gamess/auxdata/DFTB/3ob-3-1/P-C.skf
   P Ca /software/gamess/auxdata/DFTB/3ob-3-1/P-Ca.skf
   P Cl /software/gamess/auxdata/DFTB/3ob-3-1/P-Cl.skf
   P F /software/gamess/auxdata/DFTB/3ob-3-1/P-F.skf
   P H /software/gamess/auxdata/DFTB/3ob-3-1/P-H.skf
   P I /software/gamess/auxdata/DFTB/3ob-3-1/P-I.skf
   P K /software/gamess/auxdata/DFTB/3ob-3-1/P-K.skf
   P Mg /software/gamess/auxdata/DFTB/3ob-3-1/P-Mg.skf
   P N /software/gamess/auxdata/DFTB/3ob-3-1/P-N.skf
   P Na /software/gamess/auxdata/DFTB/3ob-3-1/P-Na.skf
   P O /software/gamess/auxdata/DFTB/3ob-3-1/P-O.skf
   P P /software/gamess/auxdata/DFTB/3ob-3-1/P-P.skf
   P S /software/gamess/auxdata/DFTB/3ob-3-1/P-S.skf
   P Zn /software/gamess/auxdata/DFTB/3ob-3-1/P-Zn.skf
   S Br /software/gamess/auxdata/DFTB/3ob-3-1/S-Br.skf
   S C /software/gamess/auxdata/DFTB/3ob-3-1/S-C.skf
   S Ca /software/gamess/auxdata/DFTB/3ob-3-1/S-Ca.skf
   S Cl /software/gamess/auxdata/DFTB/3ob-3-1/S-Cl.skf
   S F /software/gamess/auxdata/DFTB/3ob-3-1/S-F.skf
   S H /software/gamess/auxdata/DFTB/3ob-3-1/S-H.skf
   S I /software/gamess/auxdata/DFTB/3ob-3-1/S-I.skf
   S K /software/gamess/auxdata/DFTB/3ob-3-1/S-K.skf
   S Mg /software/gamess/auxdata/DFTB/3ob-3-1/S-Mg.skf
   S N /software/gamess/auxdata/DFTB/3ob-3-1/S-N.skf
   S Na /software/gamess/auxdata/DFTB/3ob-3-1/S-Na.skf
   S O /software/gamess/auxdata/DFTB/3ob-3-1/S-O.skf
   S P /software/gamess/auxdata/DFTB/3ob-3-1/S-P.skf
   S S /software/gamess/auxdata/DFTB/3ob-3-1/S-S.skf
   S Zn /software/gamess/auxdata/DFTB/3ob-3-1/S-Zn.skf
   Zn Br /software/gamess/auxdata/DFTB/3ob-3-1/Zn-Br.skf
   Zn C /software/gamess/auxdata/DFTB/3ob-3-1/Zn-C.skf
   Zn Ca /software/gamess/auxdata/DFTB/3ob-3-1/Zn-Ca.skf
   Zn Cl /software/gamess/auxdata/DFTB/3ob-3-1/Zn-Cl.skf
   Zn F /software/gamess/auxdata/DFTB/3ob-3-1/Zn-F.skf
   Zn H /software/gamess/auxdata/DFTB/3ob-3-1/Zn-H.skf
   Zn I /software/gamess/auxdata/DFTB/3ob-3-1/Zn-I.skf
   Zn K /software/gamess/auxdata/DFTB/3ob-3-1/Zn-K.skf
   Zn Mg /software/gamess/auxdata/DFTB/3ob-3-1/Zn-Mg.skf
   Zn N /software/gamess/auxdata/DFTB/3ob-3-1/Zn-N.skf
   Zn Na /software/gamess/auxdata/DFTB/3ob-3-1/Zn-Na.skf
   Zn O /software/gamess/auxdata/DFTB/3ob-3-1/Zn-O.skf
   Zn P /software/gamess/auxdata/DFTB/3ob-3-1/Zn-P.skf
   Zn S /software/gamess/auxdata/DFTB/3ob-3-1/Zn-S.skf
   Zn Zn /software/gamess/auxdata/DFTB/3ob-3-1/Zn-Zn.skf
 $END
 $FMO
      SCFTYP(1)=RHF
      MODGRD=10
      MODMUL=0
      respap=0
      resppc=4
      NBODY=2
      MAXCAO=5
      MAXBND=33
      NLAYER=1
      NFRAG=41
      ICHARG(1)=    0,  0,  0,  0,  0,  0, -1,  0,  0,  0, 
                    0,  0,  1,  0,  0,  0,  1,  0,  0, -1, 
                    0,  0,  0,  0,  0, -1,  0,  1,  0,  0, 
                    1,  0,  0,  0,  0,  0,  0, -1,  0,  0, 
                    1
      FRGNAM(1)= GLYA1121, LEUA1122, GLYA1123, HISA1124, GLYA1125, 
                 ALAA1126, GLUA1129, VALA1130, TYRA1131, VALA1147, 
                 ALAA1148, VALA1149, LYSA1150, THRA1151, ILEA1179, 
                 VALA1180, ARGA1181, LEUA1195, LEUA1196, GLUA1197, 
                 LEUA1198, META1199, ALAA1200, GLYA1201, GLYA1202, 
                 ASPA1203, LEUA1204, LYSA1205, ALAA1251, ALAA1252, 
                 ARGA1253, ASNA1254, CYSA1255, LEUA1256, LEUA1257, 
                 ILEA1268, GLYA1269, ASPA1270, PHEA1271, HOHA9997, 
                 LIG
      INDAT(1)= 0
                1      2      5     -8      0
                3      4      9     10     13    -27      0
               11     12     28     29     32    -34      0
               30     31     35     36     39    -51      0
               37     38     52     53     56    -58      0
               54     55     59    -69      0
               70     71     74    -85      0
               72     73     86     87     90   -101      0
               88     89    102   -123      0
              124    125    128   -140      0
              126    127    141    142    145   -150      0
              143    144    151    152    155   -166      0
              153    154    167    168    171   -188      0
              169    170    189   -203      0
              204    205    208   -223      0
              206    207    224    225    228   -239      0
              226    227    240   -264      0
              265    266    269   -284      0
              267    268    285    286    289   -303      0
              287    288    304    305    308   -318      0
              306    307    319    320    323   -337      0
              321    322    338    339    342   -354      0
              340    341    355    356    359   -364      0
              357    358    365    366    369   -371      0
              367    368    372    373    376   -378      0
              374    375    379    380    383   -390      0
              381    382    391    392    395   -409      0
              393    394    410   -432      0
              433    434    437   -443      0
              435    436    444    445    448   -453      0
              446    447    454    455    458   -477      0
              456    457    478    479    482   -491      0
              480    481    492    493    496   -502      0
              494    495    503    504    507   -521      0
              505    506    522   -541      0
              542    543    546   -561      0
              544    545    562    563    566   -568      0
              564    565    569    570    573   -580      0
              571    572    581   -601      0
              602   -604      0
              605   -653      0
 $END
 $FMOLMO
 DFTB-C 4 4
   1 0  0.558756  0.000000  0.000000  0.829332
   0 1  0.558757  0.781901  0.000000 -0.276445
   0 1  0.558756 -0.390951  0.677146 -0.276445
   0 1  0.558756 -0.390951 -0.677146 -0.276445
 $END
 $FMOBND
        -2         3  DFTB-C
       -10        11  DFTB-C
       -29        30  DFTB-C
       -36        37  DFTB-C
       -53        54  DFTB-C
       -71        72  DFTB-C
       -87        88  DFTB-C
      -125       126  DFTB-C
      -142       143  DFTB-C
      -152       153  DFTB-C
      -168       169  DFTB-C
      -205       206  DFTB-C
      -225       226  DFTB-C
      -266       267  DFTB-C
      -286       287  DFTB-C
      -305       306  DFTB-C
      -320       321  DFTB-C
      -339       340  DFTB-C
      -356       357  DFTB-C
      -366       367  DFTB-C
      -373       374  DFTB-C
      -380       381  DFTB-C
      -392       393  DFTB-C
      -434       435  DFTB-C
      -445       446  DFTB-C
      -455       456  DFTB-C
      -479       480  DFTB-C
      -493       494  DFTB-C
      -504       505  DFTB-C
      -543       544  DFTB-C
      -563       564  DFTB-C
      -570       571  DFTB-C
 $END
 $DATA
 FMO calculation : 7JY4_W47_A_702_FMO_5_H.pdb
 C1 
 C    6
 O    8
 H    1
 N    7
 S   16
 F    9
 P   15
 Cl  17
 Br  35
 I   53
 $END
 $FMOXYZ
      1      N          -11.864       -1.816      -18.159
      2      C          -10.477       -1.839      -17.738
      3      C          -10.176       -0.753      -16.723
      4      O          -10.738        0.341      -16.758
      5      H          -12.235       -2.752      -18.075
      6      H          -11.990       -1.549      -18.967
      7      H          -10.275       -2.699      -17.338
      8      H           -9.904       -1.706      -18.510
      9      N           -9.262       -1.066      -15.801
     10      C           -8.955       -0.171      -14.692
     11      C           -7.482        0.189      -14.559
     12      O           -7.153        1.023      -13.707
     13      C           -9.424       -0.785      -13.364
     14      C          -10.927       -1.036      -13.216
     15      C          -11.219       -1.661      -11.862
     16      C          -11.725        0.250      -13.396
     17      H           -8.806       -1.796      -15.798
     18      H           -9.442        0.655      -14.834
     19      H           -8.981       -1.642      -13.256
     20      H           -9.164       -0.185      -12.648
     21      H          -11.210       -1.651      -13.911
     22      H          -12.173       -1.820      -11.787
     23      H          -10.737       -2.500      -11.790
     24      H          -10.929       -1.052      -11.164
     25      H          -12.666        0.060      -13.254
     26      H          -11.419        0.905      -12.749
     27      H          -11.587        0.584      -14.296
     28      N           -6.593       -0.398      -15.350
     29      C           -5.193       -0.048      -15.305
     30      C           -4.323       -1.274      -15.469
     31      O           -4.759       -2.301      -15.986
     32      H           -6.785       -1.008      -15.925
     33      H           -4.988        0.576      -16.019
     34      H           -4.986        0.368      -14.453
     35      N           -3.077       -1.145      -15.021
     36      C           -2.083       -2.204      -15.105
     37      C           -1.600       -2.576      -13.711
     38      O           -1.478       -1.714      -12.834
     39      C           -0.879       -1.779      -15.959
     40      C           -1.116       -1.867      -17.434
     41      C           -1.812       -0.907      -18.136
     42      N           -0.739       -2.799      -18.342
     43      C           -1.214       -2.389      -19.564
     44      N           -1.857       -1.245      -19.413
     45      H           -2.780       -0.278      -14.597
     46      H           -2.543       -3.080      -15.561
     47      H           -0.593       -0.760      -15.699
     48      H           -0.015       -2.389      -15.695
     49      H           -0.170       -3.661      -18.027
     50      H           -2.191       -0.104      -17.654
     51      H           -1.042       -2.950      -20.386
     52      N           -1.328       -3.864      -13.513
     53      C           -0.643       -4.335      -12.330
     54      C            0.854       -4.407      -12.560
     55      O            1.387       -3.926      -13.561
     56      H           -1.602       -4.550      -14.202
     57      H           -0.850       -3.662      -11.498
     58      H           -1.017       -5.323      -12.063
     59      N            1.546       -5.025      -11.599
     60      C            2.980       -5.242      -11.760
     61      C            3.281       -5.918      -13.092
     62      O            4.242       -5.558      -13.783
     63      C            3.519       -6.076      -10.596
     64      H            2.642       -6.729      -13.440
     65      H            1.077       -5.341      -10.762
     66      H            3.478       -4.272      -11.747
     67      H            4.590       -6.232      -10.726
     68      H            3.340       -5.550       -9.658
     69      H            3.012       -7.040      -10.574
     70      N           -3.072       -7.008      -16.199
     71      C           -4.043       -5.922      -16.213
     72      C           -5.086       -6.139      -15.124
     73      O           -5.107       -7.167      -14.442
     74      C           -4.723       -5.807      -17.574
     75      C           -3.811       -5.530      -18.781
     76      C           -3.256       -6.755      -19.502
     77      O           -3.064       -7.792      -18.828
     78      O           -3.037       -6.632      -20.725
     79      H           -2.410       -6.839      -16.943
     80      H           -3.440       -7.941      -16.320
     81      H           -3.519       -4.988      -16.008
     82      H           -5.240       -6.738      -17.803
     83      H           -5.442       -4.988      -17.554
     84      H           -4.363       -4.965      -19.532
     85      H           -2.944       -4.954      -18.457
     86      N           -5.968       -5.149      -14.971
     87      C           -7.001       -5.165      -13.943
     88      C           -8.299       -4.646      -14.548
     89      O           -8.293       -3.776      -15.425
     90      C           -6.600       -4.321      -12.711
     91      C           -7.513       -4.626      -11.534
     92      C           -5.144       -4.569      -12.341
     93      H           -5.985       -4.444      -15.463
     94      H           -7.146       -6.078      -13.651
     95      H           -6.698       -3.381      -12.932
     96      H           -7.262       -4.062      -10.785
     97      H           -8.431       -4.445      -11.791
     98      H           -7.415       -5.560      -11.292
     99      H           -4.934       -4.073      -11.535
    100      H           -5.014       -5.518      -12.188
    101      H           -4.577       -4.272      -13.070
    102      N           -9.421       -5.185      -14.068
    103      C          -10.734       -4.846      -14.597
    104      C          -11.754       -4.760      -13.473
    105      O          -11.604       -5.392      -12.424
    106      C          -11.230       -5.887      -15.612
    107      C          -10.359       -6.039      -16.831
    108      C           -9.261       -6.888      -16.821
    109      C          -10.639       -5.342      -17.998
    110      C           -8.460       -7.032      -17.937
    111      C           -9.846       -5.478      -19.120
    112      C           -8.757       -6.324      -19.085
    113      O           -7.965       -6.463      -20.202
    114      H          -12.634       -4.129      -13.596
    115      H           -9.443       -5.757      -13.426
    116      H          -10.666       -3.979      -15.026
    117      H          -11.272       -6.751      -15.172
    118      H          -12.114       -5.626      -15.914
    119      H           -9.061       -7.368      -16.050
    120      H          -11.374       -4.773      -18.024
    121      H           -7.726       -7.602      -17.916
    122      H          -10.044       -5.002      -19.894
    123      H           -7.323       -6.980      -20.037
    124      N          -16.780       -6.802       -8.360
    125      C          -15.443       -7.303       -8.057
    126      C          -14.405       -6.594       -8.920
    127      O          -14.724       -5.894       -9.883
    128      C          -15.323       -8.831       -8.265
    129      C          -16.408       -9.562       -7.501
    130      C          -15.367       -9.184       -9.751
    131      H          -17.456       -7.464       -8.006
    132      H          -16.927       -6.687       -9.199
    133      H          -15.255       -7.088       -7.130
    134      H          -14.465       -9.123       -7.919
    135      H          -16.166      -10.499       -7.428
    136      H          -16.490       -9.172       -6.617
    137      H          -17.247       -9.474       -7.980
    138      H          -15.448      -10.146       -9.844
    139      H          -16.133       -8.748      -10.156
    140      H          -14.549       -8.878      -10.173
    141      N          -13.142       -6.798       -8.549
    142      C          -11.983       -6.421       -9.345
    143      C          -11.252       -7.689       -9.770
    144      O          -11.109       -8.626       -8.978
    145      C          -11.042       -5.507       -8.556
    146      H          -12.924       -7.171       -7.806
    147      H          -12.262       -5.936      -10.138
    148      H          -10.292       -5.261       -9.121
    149      H          -11.527       -4.712       -8.285
    150      H          -10.724       -5.983       -7.772
    151      N          -10.795       -7.720      -11.018
    152      C          -10.237       -8.924      -11.625
    153      C           -8.807       -8.624      -12.051
    154      O           -8.582       -7.842      -12.984
    155      C          -11.070       -9.401      -12.824
    156      C          -10.598      -10.772      -13.295
    157      C          -12.553       -9.428      -12.471
    158      H          -10.798       -7.040      -11.545
    159      H          -10.211       -9.628      -10.958
    160      H          -10.950       -8.776      -13.556
    161      H          -11.157      -11.062      -14.033
    162      H           -9.675      -10.705      -13.586
    163      H          -10.668      -11.400      -12.559
    164      H          -13.052       -9.768      -13.229
    165      H          -12.684      -10.005      -11.702
    166      H          -12.844       -8.526      -12.261
    167      N           -7.841       -9.246      -11.378
    168      C           -6.457       -9.226      -11.829
    169      C           -6.227      -10.424      -12.741
    170      O           -6.596      -11.552      -12.398
    171      C           -5.476       -9.263      -10.657
    172      C           -4.021       -9.151      -11.110
    173      C           -3.031       -9.306       -9.968
    174      C           -1.599       -9.200      -10.473
    175      N           -1.311       -7.892      -11.121
    176      H           -7.966       -9.688      -10.651
    177      H           -6.290       -8.405      -12.318
    178      H           -5.665       -8.521      -10.062
    179      H           -5.580      -10.103      -10.183
    180      H           -3.838       -9.847      -11.760
    181      H           -3.881       -8.278      -11.510
    182      H           -3.179       -8.605       -9.314
    183      H           -3.148      -10.175       -9.554
    184      H           -0.991       -9.303       -9.724
    185      H           -1.442       -9.899      -11.127
    186      H           -1.440       -7.230      -10.540
    187      H           -0.466       -7.870      -11.400
    188      H           -1.849       -7.773      -11.818
    189      N           -5.617      -10.176      -13.894
    190      C           -5.413      -11.197      -14.908
    191      C           -3.933      -11.530      -15.039
    192      O           -3.062      -10.693      -14.785
    193      C           -5.948      -10.742      -16.270
    194      C           -7.314      -10.094      -16.115
    195      O           -5.039       -9.798      -16.853
    196      H           -3.637      -12.527      -15.364
    197      H           -5.307       -9.405      -14.115
    198      H           -5.885      -12.001      -14.642
    199      H           -6.037      -11.510      -16.855
    200      H           -4.285      -10.153      -16.957
    201      H           -7.731       -9.988      -16.984
    202      H           -7.883      -10.649      -15.559
    203      H           -7.223       -9.222      -15.701
    204      N           -7.073       -4.500        4.625
    205      C           -6.391       -5.254        3.582
    206      C           -7.453       -5.745        2.608
    207      O           -8.438       -6.366        3.025
    208      C           -5.588       -6.436        4.161
    209      C           -4.481       -5.922        5.088
    210      C           -5.001       -7.288        3.038
    211      C           -3.835       -7.006        5.928
    212      H           -6.429       -4.348        5.388
    213      H           -7.769       -4.904        4.929
    214      H           -5.771       -4.679        3.106
    215      H           -6.191       -6.990        4.679
    216      H           -3.787       -5.513        4.548