 !*** INPUT generated by FMOPhore, Copyright "©" reserved to Peter Ezzat Girgis Fahmy Ibrahim. ***
 $CONTRL RUNTYP=ENERGY NPRINT=-5 ISPHER=-1 MAXIT=50 $END
 $SYSTEM MWORDS=29 $END
 $GDDI NGROUP=1 $END
 $INTGRL NINTIC=-9000000 $END
 $SCF DIRSCF=.TRUE. NPUNCH=0 $END
 $BASIS GBASIS=DFTB $END
 $PCM SOLVNT=WATER ICOMP=2 ICAV=1 IDISP=1 IFMO=-1 $END
 $PCMCAV RADII=SUAHF $END
 $TESCAV NTSALL=60 $END
 $DFTB
   SCC=.TRUE. DFTB3=.TRUE. DAMPXH=.TRUE. DAMPEX=4.00 DISP=UFF
 $END
 $FMOPRP
    NAODIR=200
    NGRFMO(1)=1, 1, 0, 0, 0,   0, 0, 0, 0, 0
    IPIEDA=1
    NPRINT=9
    modorb=3
 $END
 $DFTBSK
   Br Br /cluster/ddu/software/gamess/auxdata/DFTB/3ob-3-1/Br-Br.skf
   Br C /cluster/ddu/software/gamess/auxdata/DFTB/3ob-3-1/Br-C.skf
   Br Ca /cluster/ddu/software/gamess/auxdata/DFTB/3ob-3-1/Br-Ca.skf
   Br Cl /cluster/ddu/software/gamess/auxdata/DFTB/3ob-3-1/Br-Cl.skf
   Br F /cluster/ddu/software/gamess/auxdata/DFTB/3ob-3-1/Br-F.skf
   Br H /cluster/ddu/software/gamess/auxdata/DFTB/3ob-3-1/Br-H.skf
   Br I /cluster/ddu/software/gamess/auxdata/DFTB/3ob-3-1/Br-I.skf
   Br K /cluster/ddu/software/gamess/auxdata/DFTB/3ob-3-1/Br-K.skf
   Br Mg /cluster/ddu/software/gamess/auxdata/DFTB/3ob-3-1/Br-Mg.skf
   Br N /cluster/ddu/software/gamess/auxdata/DFTB/3ob-3-1/Br-N.skf
   Br Na /cluster/ddu/software/gamess/auxdata/DFTB/3ob-3-1/Br-Na.skf
   Br O /cluster/ddu/software/gamess/auxdata/DFTB/3ob-3-1/Br-O.skf
   Br P /cluster/ddu/software/gamess/auxdata/DFTB/3ob-3-1/Br-P.skf
   Br S /cluster/ddu/software/gamess/auxdata/DFTB/3ob-3-1/Br-S.skf
   Br Zn /cluster/ddu/software/gamess/auxdata/DFTB/3ob-3-1/Br-Zn.skf
   C Br /cluster/ddu/software/gamess/auxdata/DFTB/3ob-3-1/C-Br.skf
   C C /cluster/ddu/software/gamess/auxdata/DFTB/3ob-3-1/C-C.skf
   C Ca /cluster/ddu/software/gamess/auxdata/DFTB/3ob-3-1/C-Ca.skf
   C Cl /cluster/ddu/software/gamess/auxdata/DFTB/3ob-3-1/C-Cl.skf
   C F /cluster/ddu/software/gamess/auxdata/DFTB/3ob-3-1/C-F.skf
   C H /cluster/ddu/software/gamess/auxdata/DFTB/3ob-3-1/C-H.skf
   C I /cluster/ddu/software/gamess/auxdata/DFTB/3ob-3-1/C-I.skf
   C K /cluster/ddu/software/gamess/auxdata/DFTB/3ob-3-1/C-K.skf
   C Mg /cluster/ddu/software/gamess/auxdata/DFTB/3ob-3-1/C-Mg.skf
   C N /cluster/ddu/software/gamess/auxdata/DFTB/3ob-3-1/C-N.skf
   C Na /cluster/ddu/software/gamess/auxdata/DFTB/3ob-3-1/C-Na.skf
   C O /cluster/ddu/software/gamess/auxdata/DFTB/3ob-3-1/C-O.skf
   C P /cluster/ddu/software/gamess/auxdata/DFTB/3ob-3-1/C-P.skf
   C S /cluster/ddu/software/gamess/auxdata/DFTB/3ob-3-1/C-S.skf
   C Zn /cluster/ddu/software/gamess/auxdata/DFTB/3ob-3-1/C-Zn.skf
   Ca Br /cluster/ddu/software/gamess/auxdata/DFTB/3ob-3-1/Ca-Br.skf
   Ca C /cluster/ddu/software/gamess/auxdata/DFTB/3ob-3-1/Ca-C.skf
   Ca Ca /cluster/ddu/software/gamess/auxdata/DFTB/3ob-3-1/Ca-Ca.skf
   Ca Cl /cluster/ddu/software/gamess/auxdata/DFTB/3ob-3-1/Ca-Cl.skf
   Ca F /cluster/ddu/software/gamess/auxdata/DFTB/3ob-3-1/Ca-F.skf
   Ca H /cluster/ddu/software/gamess/auxdata/DFTB/3ob-3-1/Ca-H.skf
   Ca I /cluster/ddu/software/gamess/auxdata/DFTB/3ob-3-1/Ca-I.skf
   Ca K /cluster/ddu/software/gamess/auxdata/DFTB/3ob-3-1/Ca-K.skf
   Ca Mg /cluster/ddu/software/gamess/auxdata/DFTB/3ob-3-1/Ca-Mg.skf
   Ca N /cluster/ddu/software/gamess/auxdata/DFTB/3ob-3-1/Ca-N.skf
   Ca Na /cluster/ddu/software/gamess/auxdata/DFTB/3ob-3-1/Ca-Na.skf
   Ca O /cluster/ddu/software/gamess/auxdata/DFTB/3ob-3-1/Ca-O.skf
   Ca P /cluster/ddu/software/gamess/auxdata/DFTB/3ob-3-1/Ca-P.skf
   Ca S /cluster/ddu/software/gamess/auxdata/DFTB/3ob-3-1/Ca-S.skf
   Ca Zn /cluster/ddu/software/gamess/auxdata/DFTB/3ob-3-1/Ca-Zn.skf
   Cl Br /cluster/ddu/software/gamess/auxdata/DFTB/3ob-3-1/Cl-Br.skf
   Cl C /cluster/ddu/software/gamess/auxdata/DFTB/3ob-3-1/Cl-C.skf
   Cl Ca /cluster/ddu/software/gamess/auxdata/DFTB/3ob-3-1/Cl-Ca.skf
   Cl Cl /cluster/ddu/software/gamess/auxdata/DFTB/3ob-3-1/Cl-Cl.skf
   Cl F /cluster/ddu/software/gamess/auxdata/DFTB/3ob-3-1/Cl-F.skf
   Cl H /cluster/ddu/software/gamess/auxdata/DFTB/3ob-3-1/Cl-H.skf
   Cl I /cluster/ddu/software/gamess/auxdata/DFTB/3ob-3-1/Cl-I.skf
   Cl K /cluster/ddu/software/gamess/auxdata/DFTB/3ob-3-1/Cl-K.skf
   Cl Mg /cluster/ddu/software/gamess/auxdata/DFTB/3ob-3-1/Cl-Mg.skf
   Cl N /cluster/ddu/software/gamess/auxdata/DFTB/3ob-3-1/Cl-N.skf
   Cl Na /cluster/ddu/software/gamess/auxdata/DFTB/3ob-3-1/Cl-Na.skf
   Cl O /cluster/ddu/software/gamess/auxdata/DFTB/3ob-3-1/Cl-O.skf
   Cl P /cluster/ddu/software/gamess/auxdata/DFTB/3ob-3-1/Cl-P.skf
   Cl S /cluster/ddu/software/gamess/auxdata/DFTB/3ob-3-1/Cl-S.skf
   Cl Zn /cluster/ddu/software/gamess/auxdata/DFTB/3ob-3-1/Cl-Zn.skf
   F Br /cluster/ddu/software/gamess/auxdata/DFTB/3ob-3-1/F-Br.skf
   F C /cluster/ddu/software/gamess/auxdata/DFTB/3ob-3-1/F-C.skf
   F Ca /cluster/ddu/software/gamess/auxdata/DFTB/3ob-3-1/F-Ca.skf
   F Cl /cluster/ddu/software/gamess/auxdata/DFTB/3ob-3-1/F-Cl.skf
   F F /cluster/ddu/software/gamess/auxdata/DFTB/3ob-3-1/F-F.skf
   F H /cluster/ddu/software/gamess/auxdata/DFTB/3ob-3-1/F-H.skf
   F I /cluster/ddu/software/gamess/auxdata/DFTB/3ob-3-1/F-I.skf
   F K /cluster/ddu/software/gamess/auxdata/DFTB/3ob-3-1/F-K.skf
   F Mg /cluster/ddu/software/gamess/auxdata/DFTB/3ob-3-1/F-Mg.skf
   F N /cluster/ddu/software/gamess/auxdata/DFTB/3ob-3-1/F-N.skf
   F Na /cluster/ddu/software/gamess/auxdata/DFTB/3ob-3-1/F-Na.skf
   F O /cluster/ddu/software/gamess/auxdata/DFTB/3ob-3-1/F-O.skf
   F P /cluster/ddu/software/gamess/auxdata/DFTB/3ob-3-1/F-P.skf
   F S /cluster/ddu/software/gamess/auxdata/DFTB/3ob-3-1/F-S.skf
   F Zn /cluster/ddu/software/gamess/auxdata/DFTB/3ob-3-1/F-Zn.skf
   H Br /cluster/ddu/software/gamess/auxdata/DFTB/3ob-3-1/H-Br.skf
   H C /cluster/ddu/software/gamess/auxdata/DFTB/3ob-3-1/H-C.skf
   H Ca /cluster/ddu/software/gamess/auxdata/DFTB/3ob-3-1/H-Ca.skf
   H Cl /cluster/ddu/software/gamess/auxdata/DFTB/3ob-3-1/H-Cl.skf
   H F /cluster/ddu/software/gamess/auxdata/DFTB/3ob-3-1/H-F.skf
   H H /cluster/ddu/software/gamess/auxdata/DFTB/3ob-3-1/H-H.skf
   H I /cluster/ddu/software/gamess/auxdata/DFTB/3ob-3-1/H-I.skf
   H K /cluster/ddu/software/gamess/auxdata/DFTB/3ob-3-1/H-K.skf
   H Mg /cluster/ddu/software/gamess/auxdata/DFTB/3ob-3-1/H-Mg.skf
   H N /cluster/ddu/software/gamess/auxdata/DFTB/3ob-3-1/H-N.skf
   H Na /cluster/ddu/software/gamess/auxdata/DFTB/3ob-3-1/H-Na.skf
   H O /cluster/ddu/software/gamess/auxdata/DFTB/3ob-3-1/H-O.skf
   H P /cluster/ddu/software/gamess/auxdata/DFTB/3ob-3-1/H-P.skf
   H S /cluster/ddu/software/gamess/auxdata/DFTB/3ob-3-1/H-S.skf
   H Zn /cluster/ddu/software/gamess/auxdata/DFTB/3ob-3-1/H-Zn.skf
   I Br /cluster/ddu/software/gamess/auxdata/DFTB/3ob-3-1/I-Br.skf
   I C /cluster/ddu/software/gamess/auxdata/DFTB/3ob-3-1/I-C.skf
   I Ca /cluster/ddu/software/gamess/auxdata/DFTB/3ob-3-1/I-Ca.skf
   I Cl /cluster/ddu/software/gamess/auxdata/DFTB/3ob-3-1/I-Cl.skf
   I F /cluster/ddu/software/gamess/auxdata/DFTB/3ob-3-1/I-F.skf
   I H /cluster/ddu/software/gamess/auxdata/DFTB/3ob-3-1/I-H.skf
   I I /cluster/ddu/software/gamess/auxdata/DFTB/3ob-3-1/I-I.skf
   I K /cluster/ddu/software/gamess/auxdata/DFTB/3ob-3-1/I-K.skf
   I Mg /cluster/ddu/software/gamess/auxdata/DFTB/3ob-3-1/I-Mg.skf
   I N /cluster/ddu/software/gamess/auxdata/DFTB/3ob-3-1/I-N.skf
   I Na /cluster/ddu/software/gamess/auxdata/DFTB/3ob-3-1/I-Na.skf
   I O /cluster/ddu/software/gamess/auxdata/DFTB/3ob-3-1/I-O.skf
   I P /cluster/ddu/software/gamess/auxdata/DFTB/3ob-3-1/I-P.skf
   I S /cluster/ddu/software/gamess/auxdata/DFTB/3ob-3-1/I-S.skf
   I Zn /cluster/ddu/software/gamess/auxdata/DFTB/3ob-3-1/I-Zn.skf
   K Br /cluster/ddu/software/gamess/auxdata/DFTB/3ob-3-1/K-Br.skf
   K C /cluster/ddu/software/gamess/auxdata/DFTB/3ob-3-1/K-C.skf
   K Ca /cluster/ddu/software/gamess/auxdata/DFTB/3ob-3-1/K-Ca.skf
   K Cl /cluster/ddu/software/gamess/auxdata/DFTB/3ob-3-1/K-Cl.skf
   K F /cluster/ddu/software/gamess/auxdata/DFTB/3ob-3-1/K-F.skf
   K H /cluster/ddu/software/gamess/auxdata/DFTB/3ob-3-1/K-H.skf
   K I /cluster/ddu/software/gamess/auxdata/DFTB/3ob-3-1/K-I.skf
   K K /cluster/ddu/software/gamess/auxdata/DFTB/3ob-3-1/K-K.skf
   K Mg /cluster/ddu/software/gamess/auxdata/DFTB/3ob-3-1/K-Mg.skf
   K N /cluster/ddu/software/gamess/auxdata/DFTB/3ob-3-1/K-N.skf
   K Na /cluster/ddu/software/gamess/auxdata/DFTB/3ob-3-1/K-Na.skf
   K O /cluster/ddu/software/gamess/auxdata/DFTB/3ob-3-1/K-O.skf
   K P /cluster/ddu/software/gamess/auxdata/DFTB/3ob-3-1/K-P.skf
   K S /cluster/ddu/software/gamess/auxdata/DFTB/3ob-3-1/K-S.skf
   K Zn /cluster/ddu/software/gamess/auxdata/DFTB/3ob-3-1/K-Zn.skf
   Mg Br /cluster/ddu/software/gamess/auxdata/DFTB/3ob-3-1/Mg-Br.skf
   Mg C /cluster/ddu/software/gamess/auxdata/DFTB/3ob-3-1/Mg-C.skf
   Mg Ca /cluster/ddu/software/gamess/auxdata/DFTB/3ob-3-1/Mg-Ca.skf
   Mg Cl /cluster/ddu/software/gamess/auxdata/DFTB/3ob-3-1/Mg-Cl.skf
   Mg F /cluster/ddu/software/gamess/auxdata/DFTB/3ob-3-1/Mg-F.skf
   Mg H /cluster/ddu/software/gamess/auxdata/DFTB/3ob-3-1/Mg-H.skf
   Mg I /cluster/ddu/software/gamess/auxdata/DFTB/3ob-3-1/Mg-I.skf
   Mg K /cluster/ddu/software/gamess/auxdata/DFTB/3ob-3-1/Mg-K.skf
   Mg Mg /cluster/ddu/software/gamess/auxdata/DFTB/3ob-3-1/Mg-Mg.skf
   Mg N /cluster/ddu/software/gamess/auxdata/DFTB/3ob-3-1/Mg-N.skf
   Mg Na /cluster/ddu/software/gamess/auxdata/DFTB/3ob-3-1/Mg-Na.skf
   Mg O /cluster/ddu/software/gamess/auxdata/DFTB/3ob-3-1/Mg-O.skf
   Mg P /cluster/ddu/software/gamess/auxdata/DFTB/3ob-3-1/Mg-P.skf
   Mg S /cluster/ddu/software/gamess/auxdata/DFTB/3ob-3-1/Mg-S.skf
   Mg Zn /cluster/ddu/software/gamess/auxdata/DFTB/3ob-3-1/Mg-Zn.skf
   N Br /cluster/ddu/software/gamess/auxdata/DFTB/3ob-3-1/N-Br.skf
   N C /cluster/ddu/software/gamess/auxdata/DFTB/3ob-3-1/N-C.skf
   N Ca /cluster/ddu/software/gamess/auxdata/DFTB/3ob-3-1/N-Ca.skf
   N Cl /cluster/ddu/software/gamess/auxdata/DFTB/3ob-3-1/N-Cl.skf
   N F /cluster/ddu/software/gamess/auxdata/DFTB/3ob-3-1/N-F.skf
   N H /cluster/ddu/software/gamess/auxdata/DFTB/3ob-3-1/N-H.skf
   N I /cluster/ddu/software/gamess/auxdata/DFTB/3ob-3-1/N-I.skf
   N K /cluster/ddu/software/gamess/auxdata/DFTB/3ob-3-1/N-K.skf
   N Mg /cluster/ddu/software/gamess/auxdata/DFTB/3ob-3-1/N-Mg.skf
   N N /cluster/ddu/software/gamess/auxdata/DFTB/3ob-3-1/N-N.skf
   N Na /cluster/ddu/software/gamess/auxdata/DFTB/3ob-3-1/N-Na.skf
   N O /cluster/ddu/software/gamess/auxdata/DFTB/3ob-3-1/N-O.skf
   N P /cluster/ddu/software/gamess/auxdata/DFTB/3ob-3-1/N-P.skf
   N S /cluster/ddu/software/gamess/auxdata/DFTB/3ob-3-1/N-S.skf
   N Zn /cluster/ddu/software/gamess/auxdata/DFTB/3ob-3-1/N-Zn.skf
   Na Br /cluster/ddu/software/gamess/auxdata/DFTB/3ob-3-1/Na-Br.skf
   Na C /cluster/ddu/software/gamess/auxdata/DFTB/3ob-3-1/Na-C.skf
   Na Ca /cluster/ddu/software/gamess/auxdata/DFTB/3ob-3-1/Na-Ca.skf
   Na Cl /cluster/ddu/software/gamess/auxdata/DFTB/3ob-3-1/Na-Cl.skf
   Na F /cluster/ddu/software/gamess/auxdata/DFTB/3ob-3-1/Na-F.skf
   Na H /cluster/ddu/software/gamess/auxdata/DFTB/3ob-3-1/Na-H.skf
   Na I /cluster/ddu/software/gamess/auxdata/DFTB/3ob-3-1/Na-I.skf
   Na K /cluster/ddu/software/gamess/auxdata/DFTB/3ob-3-1/Na-K.skf
   Na Mg /cluster/ddu/software/gamess/auxdata/DFTB/3ob-3-1/Na-Mg.skf
   Na N /cluster/ddu/software/gamess/auxdata/DFTB/3ob-3-1/Na-N.skf
   Na Na /cluster/ddu/software/gamess/auxdata/DFTB/3ob-3-1/Na-Na.skf
   Na O /cluster/ddu/software/gamess/auxdata/DFTB/3ob-3-1/Na-O.skf
   Na P /cluster/ddu/software/gamess/auxdata/DFTB/3ob-3-1/Na-P.skf
   Na S /cluster/ddu/software/gamess/auxdata/DFTB/3ob-3-1/Na-S.skf
   Na Zn /cluster/ddu/software/gamess/auxdata/DFTB/3ob-3-1/Na-Zn.skf
   O Br /cluster/ddu/software/gamess/auxdata/DFTB/3ob-3-1/O-Br.skf
   O C /cluster/ddu/software/gamess/auxdata/DFTB/3ob-3-1/O-C.skf
   O Ca /cluster/ddu/software/gamess/auxdata/DFTB/3ob-3-1/O-Ca.skf
   O Cl /cluster/ddu/software/gamess/auxdata/DFTB/3ob-3-1/O-Cl.skf
   O F /cluster/ddu/software/gamess/auxdata/DFTB/3ob-3-1/O-F.skf
   O H /cluster/ddu/software/gamess/auxdata/DFTB/3ob-3-1/O-H.skf
   O I /cluster/ddu/software/gamess/auxdata/DFTB/3ob-3-1/O-I.skf
   O K /cluster/ddu/software/gamess/auxdata/DFTB/3ob-3-1/O-K.skf
   O Mg /cluster/ddu/software/gamess/auxdata/DFTB/3ob-3-1/O-Mg.skf
   O N /cluster/ddu/software/gamess/auxdata/DFTB/3ob-3-1/O-N.skf
   O Na /cluster/ddu/software/gamess/auxdata/DFTB/3ob-3-1/O-Na.skf
   O O /cluster/ddu/software/gamess/auxdata/DFTB/3ob-3-1/O-O.skf
   O P /cluster/ddu/software/gamess/auxdata/DFTB/3ob-3-1/O-P.skf
   O S /cluster/ddu/software/gamess/auxdata/DFTB/3ob-3-1/O-S.skf
   O Zn /cluster/ddu/software/gamess/auxdata/DFTB/3ob-3-1/O-Zn.skf
   P Br /cluster/ddu/software/gamess/auxdata/DFTB/3ob-3-1/P-Br.skf
   P C /cluster/ddu/software/gamess/auxdata/DFTB/3ob-3-1/P-C.skf
   P Ca /cluster/ddu/software/gamess/auxdata/DFTB/3ob-3-1/P-Ca.skf
   P Cl /cluster/ddu/software/gamess/auxdata/DFTB/3ob-3-1/P-Cl.skf
   P F /cluster/ddu/software/gamess/auxdata/DFTB/3ob-3-1/P-F.skf
   P H /cluster/ddu/software/gamess/auxdata/DFTB/3ob-3-1/P-H.skf
   P I /cluster/ddu/software/gamess/auxdata/DFTB/3ob-3-1/P-I.skf
   P K /cluster/ddu/software/gamess/auxdata/DFTB/3ob-3-1/P-K.skf
   P Mg /cluster/ddu/software/gamess/auxdata/DFTB/3ob-3-1/P-Mg.skf
   P N /cluster/ddu/software/gamess/auxdata/DFTB/3ob-3-1/P-N.skf
   P Na /cluster/ddu/software/gamess/auxdata/DFTB/3ob-3-1/P-Na.skf
   P O /cluster/ddu/software/gamess/auxdata/DFTB/3ob-3-1/P-O.skf
   P P /cluster/ddu/software/gamess/auxdata/DFTB/3ob-3-1/P-P.skf
   P S /cluster/ddu/software/gamess/auxdata/DFTB/3ob-3-1/P-S.skf
   P Zn /cluster/ddu/software/gamess/auxdata/DFTB/3ob-3-1/P-Zn.skf
   S Br /cluster/ddu/software/gamess/auxdata/DFTB/3ob-3-1/S-Br.skf
   S C /cluster/ddu/software/gamess/auxdata/DFTB/3ob-3-1/S-C.skf
   S Ca /cluster/ddu/software/gamess/auxdata/DFTB/3ob-3-1/S-Ca.skf
   S Cl /cluster/ddu/software/gamess/auxdata/DFTB/3ob-3-1/S-Cl.skf
   S F /cluster/ddu/software/gamess/auxdata/DFTB/3ob-3-1/S-F.skf
   S H /cluster/ddu/software/gamess/auxdata/DFTB/3ob-3-1/S-H.skf
   S I /cluster/ddu/software/gamess/auxdata/DFTB/3ob-3-1/S-I.skf
   S K /cluster/ddu/software/gamess/auxdata/DFTB/3ob-3-1/S-K.skf
   S Mg /cluster/ddu/software/gamess/auxdata/DFTB/3ob-3-1/S-Mg.skf
   S N /cluster/ddu/software/gamess/auxdata/DFTB/3ob-3-1/S-N.skf
   S Na /cluster/ddu/software/gamess/auxdata/DFTB/3ob-3-1/S-Na.skf
   S O /cluster/ddu/software/gamess/auxdata/DFTB/3ob-3-1/S-O.skf
   S P /cluster/ddu/software/gamess/auxdata/DFTB/3ob-3-1/S-P.skf
   S S /cluster/ddu/software/gamess/auxdata/DFTB/3ob-3-1/S-S.skf
   S Zn /cluster/ddu/software/gamess/auxdata/DFTB/3ob-3-1/S-Zn.skf
   Zn Br /cluster/ddu/software/gamess/auxdata/DFTB/3ob-3-1/Zn-Br.skf
   Zn C /cluster/ddu/software/gamess/auxdata/DFTB/3ob-3-1/Zn-C.skf
   Zn Ca /cluster/ddu/software/gamess/auxdata/DFTB/3ob-3-1/Zn-Ca.skf
   Zn Cl /cluster/ddu/software/gamess/auxdata/DFTB/3ob-3-1/Zn-Cl.skf
   Zn F /cluster/ddu/software/gamess/auxdata/DFTB/3ob-3-1/Zn-F.skf
   Zn H /cluster/ddu/software/gamess/auxdata/DFTB/3ob-3-1/Zn-H.skf
   Zn I /cluster/ddu/software/gamess/auxdata/DFTB/3ob-3-1/Zn-I.skf
   Zn K /cluster/ddu/software/gamess/auxdata/DFTB/3ob-3-1/Zn-K.skf
   Zn Mg /cluster/ddu/software/gamess/auxdata/DFTB/3ob-3-1/Zn-Mg.skf
   Zn N /cluster/ddu/software/gamess/auxdata/DFTB/3ob-3-1/Zn-N.skf
   Zn Na /cluster/ddu/software/gamess/auxdata/DFTB/3ob-3-1/Zn-Na.skf
   Zn O /cluster/ddu/software/gamess/auxdata/DFTB/3ob-3-1/Zn-O.skf
   Zn P /cluster/ddu/software/gamess/auxdata/DFTB/3ob-3-1/Zn-P.skf
   Zn S /cluster/ddu/software/gamess/auxdata/DFTB/3ob-3-1/Zn-S.skf
   Zn Zn /cluster/ddu/software/gamess/auxdata/DFTB/3ob-3-1/Zn-Zn.skf
 $END
 $FMO
      SCFTYP(1)=RHF
      MODGRD=10
      MODMUL=0
      respap=0
      resppc=4
      NBODY=2
      MAXCAO=5
      MAXBND=65
      NLAYER=1
      NFRAG=77
      ICHARG(1)=    0,  1,  0,  0,  0, -1,  0,  0,  1,  0, 
                    0,  0,  0,  1,  0, -1,  0,  0,  0, -1, 
                    0,  0,  0,  0,  0,  0,  0,  0,  0,  0, 
                    0,  1,  0, -1,  0,  0,  0,  0, -1,  0, 
                    0, -1,  0,  0,  0,  0, -1,  1,  0,  0, 
                    1, -1,  1, -1,  0,  0,  0,  0,  0,  0, 
                    0,  1,  0,  1,  0,  0,  0,  0,  1,  0, 
                    0, -1,  0,  0,  0,  0,  0
      FRGNAM(1)= GLNA616, LYSA617, VALA618, ILEA619, GLYA620, 
                 GLUA626, VALA627, TYRA628, LYSA629, GLYA630, 
                 VALA643, ALAA644, ILEA645, LYSA646, THRA647, 
                 ASPA659, PHEA660, LEUA661, GLYA662, GLUA663, 
                 ALAA664, GLYA665, ILEA666, META667, GLYA668, 
                 GLNA669, PHEA670, SERA671, ASNA674, ILEA675, 
                 ILEA676, ARGA677, LEUA678, GLUA679, META689, 
                 ILEA690, ILEA691, THRA692, GLUA693, TYRA694, 
                 META695, GLUA696, ASNA697, GLYA698, ALAA699, 
                 LEUA700, ASPA701, LYSA702, PHEA703, LEUA704, 
                 ARGA705, GLUA706, LYSA707, ASPA708, TYRA729, 
                 LEUA730, ALAA731, ASNA734, TYRA735, VALA736, 
                 HISA737, ARGA738, ALAA742, ARGA743, ASNA744, 
                 ILEA745, LEUA746, VALA747, LYSA754, VALA755, 
                 SERA756, ASPA757, PHEA758, GLYA759, HOHA897, 
                 HOHA898, LIG
      INDAT(1)= 0
                1      2      5    -18      0
                3      4     19     20     23    -40      0
               21     22     41     42     45    -56      0
               43     44     57     58     61    -75      0
               59     60     76    -83      0
               84     85     88    -99      0
               86     87    100    101    104   -115      0
              102    103    116    117    120   -136      0
              118    119    137    138    141   -158      0
              139    140    159   -166      0
              167    168    171   -183      0
              169    170    184    185    188   -193      0
              186    187    194    195    198   -212      0
              196    197    213    214    217   -234      0
              215    216    235   -249      0
              250    251    254   -262      0
              252    253    263    264    267   -282      0
              265    266    283    284    287   -301      0
              285    286    302    303    306   -308      0
              304    305    309    310    313   -323      0
              311    312    324    325    328   -333      0
              326    327    334    335    338   -340      0
              336    337    341    342    345   -359      0
              343    344    360    361    364   -376      0
              362    363    377    378    381   -383      0
              379    380    384    385    388   -400      0
              386    387    401    402    405   -420      0
              403    404    421   -432      0
              433    434    437   -447      0
              435    436    448    449    452   -466      0
              450    451    467    468    471   -485      0
              469    470    486    487    490   -509      0
              488    489    510    511    514   -528      0
              512    513    529   -544      0
              545    546    549   -562      0
              547    548    563    564    567   -581      0
              565    566    582    583    586   -600      0
              584    585    601    602    605   -614      0
              603    604    615    616    619   -629      0
              617    618    630    631    634   -650      0
              632    633    651    652    655   -667      0
              653    654    668    669    672   -682      0
              670    671    683    684    687   -696      0
              685    686    697    698    701   -703      0
              699    700    704    705    708   -713      0
              706    707    714    715    718   -732      0
              716    717    733    734    737   -744      0
              735    736    745    746    749   -766      0
              747    748    767    768    771   -786      0
              769    770    787    788    791   -805      0
              789    790    806    807    810   -829      0
              808    809    830    831    834   -844      0
              832    833    845    846    849   -866      0
              847    848    867   -879      0
              880    881    884   -901      0
              882    883    902    903    906   -920      0
              904    905    921   -931      0
              932    933    936   -946      0
              934    935    947    948    951   -967      0
              949    950    968    969    972   -983      0
              970    971    984    985    988  -1000      0
              986    987   1001  -1025      0
             1026   1027   1030  -1036      0
             1028   1029   1037   1038   1041  -1060      0
             1039   1040   1061   1062   1065  -1074      0
             1063   1064   1075   1076   1079  -1093      0
             1077   1078   1094   1095   1098  -1112      0
             1096   1097   1113  -1129      0
             1130   1131   1134  -1152      0
             1132   1133   1153   1154   1157  -1168      0
             1155   1156   1169   1170   1173  -1179      0
             1171   1172   1180   1181   1184  -1191      0
             1182   1183   1192   1193   1196  -1211      0
             1194   1195   1212  -1219      0
             1220  -1222      0
             1223  -1225      0
             1226  -1294      0
 $END
 $FMOLMO
 DFTB-C 4 4
   1 0  0.558756  0.000000  0.000000  0.829332
   0 1  0.558757  0.781901  0.000000 -0.276445
   0 1  0.558756 -0.390951  0.677146 -0.276445
   0 1  0.558756 -0.390951 -0.677146 -0.276445
 $END
 $FMOBND
        -2         3  DFTB-C
       -20        21  DFTB-C
       -42        43  DFTB-C
       -58        59  DFTB-C
       -85        86  DFTB-C
      -101       102  DFTB-C
      -117       118  DFTB-C
      -138       139  DFTB-C
      -168       169  DFTB-C
      -185       186  DFTB-C
      -195       196  DFTB-C
      -214       215  DFTB-C
      -251       252  DFTB-C
      -264       265  DFTB-C
      -284       285  DFTB-C
      -303       304  DFTB-C
      -310       311  DFTB-C
      -325       326  DFTB-C
      -335       336  DFTB-C
      -342       343  DFTB-C
      -361       362  DFTB-C
      -378       379  DFTB-C
      -385       386  DFTB-C
      -402       403  DFTB-C
      -434       435  DFTB-C
      -449       450  DFTB-C
      -468       469  DFTB-C
      -487       488  DFTB-C
      -511       512  DFTB-C
      -546       547  DFTB-C
      -564       565  DFTB-C
      -583       584  DFTB-C
      -602       603  DFTB-C
      -616       617  DFTB-C
      -631       632  DFTB-C
      -652       653  DFTB-C
      -669       670  DFTB-C
      -684       685  DFTB-C
      -698       699  DFTB-C
      -705       706  DFTB-C
      -715       716  DFTB-C
      -734       735  DFTB-C
      -746       747  DFTB-C
      -768       769  DFTB-C
      -788       789  DFTB-C
      -807       808  DFTB-C
      -831       832  DFTB-C
      -846       847  DFTB-C
      -881       882  DFTB-C
      -903       904  DFTB-C
      -933       934  DFTB-C
      -948       949  DFTB-C
      -969       970  DFTB-C
      -985       986  DFTB-C
     -1027      1028  DFTB-C
     -1038      1039  DFTB-C
     -1062      1063  DFTB-C
     -1076      1077  DFTB-C
     -1095      1096  DFTB-C
     -1131      1132  DFTB-C
     -1154      1155  DFTB-C
     -1170      1171  DFTB-C
     -1181      1182  DFTB-C
     -1193      1194  DFTB-C
 $END
 $DATA
 FMO calculation : 5NK8_90Z_A_1_FMO_5_H.pdb
 C1 
 C    6
 O    8
 H    1
 N    7
 S   16
 F    9
 P   15
 Cl  17
 Br  35
 I   53
 $END
 $FMOXYZ
      1      N            5.854      -20.356      -13.808
      2      C            6.962      -20.137      -14.739
      3      C            8.260      -19.726      -14.024
      4      O            9.341      -20.096      -14.479
      5      C            6.563      -18.974      -15.672
      6      C            5.422      -19.338      -16.642
      7      C            4.973      -18.142      -17.483
      8      N            4.780      -18.355      -18.786
      9      O            4.796      -17.040      -16.967
     10      H            5.185      -20.961      -14.263
     11      H            5.359      -19.531      -13.493
     12      H            7.158      -21.031      -15.335
     13      H            6.285      -18.104      -15.074
     14      H            7.426      -18.666      -16.266
     15      H            5.740      -20.154      -17.293
     16      H            4.552      -19.700      -16.095
     17      H            4.935      -19.272      -19.178
     18      H            4.485      -17.593      -19.380
     19      N            8.162      -18.943      -12.937
     20      C            9.287      -18.342      -12.218
     21      C            8.869      -18.056      -10.770
     22      O            7.703      -17.763      -10.524
     23      C            9.767      -17.080      -12.979
     24      C           11.078      -16.463      -12.460
     25      C           11.407      -15.121      -13.130
     26      C           12.715      -14.514      -12.601
     27      N           12.963      -13.183      -13.180
     28      H            7.238      -18.695      -12.611
     29      H           10.102      -19.068      -12.187
     30      H            9.904      -17.318      -14.035
     31      H            8.981      -16.325      -12.948
     32      H           11.016      -16.293      -11.387
     33      H           11.896      -17.168      -12.613
     34      H           11.473      -15.256      -14.210
     35      H           10.586      -14.425      -12.953
     36      H           12.677      -14.419      -11.515
     37      H           13.557      -15.165      -12.838
     38      H           12.207      -12.562      -12.933
     39      H           13.831      -12.815      -12.817
     40      H           13.025      -13.255      -14.186
     41      N            9.819      -18.095       -9.821
     42      C            9.630      -17.668       -8.431
     43      C            9.880      -16.147       -8.361
     44      O           10.927      -15.669       -8.802
     45      C           10.654      -18.409       -7.522
     46      C           10.562      -17.983       -6.041
     47      C           10.498      -19.938       -7.607
     48      H           10.758      -18.344      -10.095
     49      H            8.620      -17.903       -8.092
     50      H           11.662      -18.171       -7.867
     51      H           11.240      -18.568       -5.420
     52      H           10.831      -16.937       -5.896
     53      H            9.552      -18.124       -5.652
     54      H           11.246      -20.444       -6.997
     55      H            9.519      -20.245       -7.244
     56      H           10.611      -20.311       -8.625
     57      N            8.928      -15.403       -7.776
     58      C            9.045      -13.976       -7.451
     59      C            9.661      -13.835       -6.043
     60      O           10.536      -12.993       -5.845
     61      C            7.630      -13.314       -7.500
     62      C            7.070      -13.313       -8.944
     63      C            7.606      -11.876       -6.932
     64      C            5.588      -12.918       -9.060
     65      H            8.106      -15.878       -7.425
     66      H            9.697      -13.474       -8.169
     67      H            6.956      -13.909       -6.884
     68      H            7.668      -12.649       -9.570
     69      H            7.182      -14.305       -9.381
     70      H            6.607      -11.446       -6.969
     71      H            7.900      -11.832       -5.883
     72      H            8.273      -11.221       -7.493
     73      H            5.238      -13.028      -10.085
     74      H            4.957      -13.549       -8.438
     75      H            5.413      -11.882       -8.774
     76      N            9.219      -14.657       -5.077
     77      C            9.707      -14.641       -3.704
     78      C            8.941      -15.648       -2.850
     79      O            8.578      -16.729       -3.309
     80      H            8.506      -15.337       -5.307
     81      H           10.769      -14.890       -3.682
     82      H            9.588      -13.646       -3.274
     83      H            8.746      -15.339       -1.824
     84      N            5.478      -19.857       -1.272
     85      C            6.224      -19.091       -2.269
     86      C            5.246      -18.372       -3.206
     87      O            4.193      -18.914       -3.544
     88      C            7.266      -19.938       -3.051
     89      C            8.031      -21.041       -2.285
     90      C            7.329      -22.404       -2.184
     91      O            6.298      -22.608       -2.866
     92      O            7.864      -23.242       -1.427
     93      H            6.117      -20.507       -0.837
     94      H            4.688      -20.385       -1.623
     95      H            6.780      -18.314       -1.741
     96      H            6.796      -20.377       -3.926
     97      H            8.004      -19.257       -3.474
     98      H            8.974      -21.227       -2.800
     99      H            8.301      -20.692       -1.288
    100      N            5.617      -17.161       -3.646
    101      C            4.907      -16.381       -4.658
    102      C            5.631      -16.628       -5.991
    103      O            6.847      -16.453       -6.076
    104      C            4.947      -14.873       -4.284
    105      C            4.166      -14.005       -5.290
    106      C            4.390      -14.611       -2.872
    107      H            6.512      -16.804       -3.343
    108      H            3.868      -16.694       -4.730