 !*** INPUT generated by FMOPhore, Copyright "©" reserved to Peter Ezzat Girgis Fahmy Ibrahim. ***
 $CONTRL RUNTYP=ENERGY NPRINT=-5 ISPHER=-1 MAXIT=50 $END
 $SYSTEM MWORDS=29 $END
 $GDDI NGROUP=1 $END
 $INTGRL NINTIC=-9000000 $END
 $SCF DIRSCF=.TRUE. NPUNCH=0 $END
 $BASIS GBASIS=DFTB $END
 $PCM SOLVNT=WATER ICOMP=2 ICAV=1 IDISP=1 IFMO=-1 $END
 $PCMCAV RADII=SUAHF $END
 $TESCAV NTSALL=60 $END
 $DFTB
   SCC=.TRUE. DFTB3=.TRUE. DAMPXH=.TRUE. DAMPEX=4.00 DISP=UFF
 $END
 $FMOPRP
    NAODIR=200
    NGRFMO(1)=1, 1, 0, 0, 0,   0, 0, 0, 0, 0
    IPIEDA=1
    NPRINT=9
    modorb=3
 $END
 $DFTBSK
   Br Br /cluster/ddu/software/gamess/auxdata/DFTB/3ob-3-1/Br-Br.skf
   Br C /cluster/ddu/software/gamess/auxdata/DFTB/3ob-3-1/Br-C.skf
   Br Ca /cluster/ddu/software/gamess/auxdata/DFTB/3ob-3-1/Br-Ca.skf
   Br Cl /cluster/ddu/software/gamess/auxdata/DFTB/3ob-3-1/Br-Cl.skf
   Br F /cluster/ddu/software/gamess/auxdata/DFTB/3ob-3-1/Br-F.skf
   Br H /cluster/ddu/software/gamess/auxdata/DFTB/3ob-3-1/Br-H.skf
   Br I /cluster/ddu/software/gamess/auxdata/DFTB/3ob-3-1/Br-I.skf
   Br K /cluster/ddu/software/gamess/auxdata/DFTB/3ob-3-1/Br-K.skf
   Br Mg /cluster/ddu/software/gamess/auxdata/DFTB/3ob-3-1/Br-Mg.skf
   Br N /cluster/ddu/software/gamess/auxdata/DFTB/3ob-3-1/Br-N.skf
   Br Na /cluster/ddu/software/gamess/auxdata/DFTB/3ob-3-1/Br-Na.skf
   Br O /cluster/ddu/software/gamess/auxdata/DFTB/3ob-3-1/Br-O.skf
   Br P /cluster/ddu/software/gamess/auxdata/DFTB/3ob-3-1/Br-P.skf
   Br S /cluster/ddu/software/gamess/auxdata/DFTB/3ob-3-1/Br-S.skf
   Br Zn /cluster/ddu/software/gamess/auxdata/DFTB/3ob-3-1/Br-Zn.skf
   C Br /cluster/ddu/software/gamess/auxdata/DFTB/3ob-3-1/C-Br.skf
   C C /cluster/ddu/software/gamess/auxdata/DFTB/3ob-3-1/C-C.skf
   C Ca /cluster/ddu/software/gamess/auxdata/DFTB/3ob-3-1/C-Ca.skf
   C Cl /cluster/ddu/software/gamess/auxdata/DFTB/3ob-3-1/C-Cl.skf
   C F /cluster/ddu/software/gamess/auxdata/DFTB/3ob-3-1/C-F.skf
   C H /cluster/ddu/software/gamess/auxdata/DFTB/3ob-3-1/C-H.skf
   C I /cluster/ddu/software/gamess/auxdata/DFTB/3ob-3-1/C-I.skf
   C K /cluster/ddu/software/gamess/auxdata/DFTB/3ob-3-1/C-K.skf
   C Mg /cluster/ddu/software/gamess/auxdata/DFTB/3ob-3-1/C-Mg.skf
   C N /cluster/ddu/software/gamess/auxdata/DFTB/3ob-3-1/C-N.skf
   C Na /cluster/ddu/software/gamess/auxdata/DFTB/3ob-3-1/C-Na.skf
   C O /cluster/ddu/software/gamess/auxdata/DFTB/3ob-3-1/C-O.skf
   C P /cluster/ddu/software/gamess/auxdata/DFTB/3ob-3-1/C-P.skf
   C S /cluster/ddu/software/gamess/auxdata/DFTB/3ob-3-1/C-S.skf
   C Zn /cluster/ddu/software/gamess/auxdata/DFTB/3ob-3-1/C-Zn.skf
   Ca Br /cluster/ddu/software/gamess/auxdata/DFTB/3ob-3-1/Ca-Br.skf
   Ca C /cluster/ddu/software/gamess/auxdata/DFTB/3ob-3-1/Ca-C.skf
   Ca Ca /cluster/ddu/software/gamess/auxdata/DFTB/3ob-3-1/Ca-Ca.skf
   Ca Cl /cluster/ddu/software/gamess/auxdata/DFTB/3ob-3-1/Ca-Cl.skf
   Ca F /cluster/ddu/software/gamess/auxdata/DFTB/3ob-3-1/Ca-F.skf
   Ca H /cluster/ddu/software/gamess/auxdata/DFTB/3ob-3-1/Ca-H.skf
   Ca I /cluster/ddu/software/gamess/auxdata/DFTB/3ob-3-1/Ca-I.skf
   Ca K /cluster/ddu/software/gamess/auxdata/DFTB/3ob-3-1/Ca-K.skf
   Ca Mg /cluster/ddu/software/gamess/auxdata/DFTB/3ob-3-1/Ca-Mg.skf
   Ca N /cluster/ddu/software/gamess/auxdata/DFTB/3ob-3-1/Ca-N.skf
   Ca Na /cluster/ddu/software/gamess/auxdata/DFTB/3ob-3-1/Ca-Na.skf
   Ca O /cluster/ddu/software/gamess/auxdata/DFTB/3ob-3-1/Ca-O.skf
   Ca P /cluster/ddu/software/gamess/auxdata/DFTB/3ob-3-1/Ca-P.skf
   Ca S /cluster/ddu/software/gamess/auxdata/DFTB/3ob-3-1/Ca-S.skf
   Ca Zn /cluster/ddu/software/gamess/auxdata/DFTB/3ob-3-1/Ca-Zn.skf
   Cl Br /cluster/ddu/software/gamess/auxdata/DFTB/3ob-3-1/Cl-Br.skf
   Cl C /cluster/ddu/software/gamess/auxdata/DFTB/3ob-3-1/Cl-C.skf
   Cl Ca /cluster/ddu/software/gamess/auxdata/DFTB/3ob-3-1/Cl-Ca.skf
   Cl Cl /cluster/ddu/software/gamess/auxdata/DFTB/3ob-3-1/Cl-Cl.skf
   Cl F /cluster/ddu/software/gamess/auxdata/DFTB/3ob-3-1/Cl-F.skf
   Cl H /cluster/ddu/software/gamess/auxdata/DFTB/3ob-3-1/Cl-H.skf
   Cl I /cluster/ddu/software/gamess/auxdata/DFTB/3ob-3-1/Cl-I.skf
   Cl K /cluster/ddu/software/gamess/auxdata/DFTB/3ob-3-1/Cl-K.skf
   Cl Mg /cluster/ddu/software/gamess/auxdata/DFTB/3ob-3-1/Cl-Mg.skf
   Cl N /cluster/ddu/software/gamess/auxdata/DFTB/3ob-3-1/Cl-N.skf
   Cl Na /cluster/ddu/software/gamess/auxdata/DFTB/3ob-3-1/Cl-Na.skf
   Cl O /cluster/ddu/software/gamess/auxdata/DFTB/3ob-3-1/Cl-O.skf
   Cl P /cluster/ddu/software/gamess/auxdata/DFTB/3ob-3-1/Cl-P.skf
   Cl S /cluster/ddu/software/gamess/auxdata/DFTB/3ob-3-1/Cl-S.skf
   Cl Zn /cluster/ddu/software/gamess/auxdata/DFTB/3ob-3-1/Cl-Zn.skf
   F Br /cluster/ddu/software/gamess/auxdata/DFTB/3ob-3-1/F-Br.skf
   F C /cluster/ddu/software/gamess/auxdata/DFTB/3ob-3-1/F-C.skf
   F Ca /cluster/ddu/software/gamess/auxdata/DFTB/3ob-3-1/F-Ca.skf
   F Cl /cluster/ddu/software/gamess/auxdata/DFTB/3ob-3-1/F-Cl.skf
   F F /cluster/ddu/software/gamess/auxdata/DFTB/3ob-3-1/F-F.skf
   F H /cluster/ddu/software/gamess/auxdata/DFTB/3ob-3-1/F-H.skf
   F I /cluster/ddu/software/gamess/auxdata/DFTB/3ob-3-1/F-I.skf
   F K /cluster/ddu/software/gamess/auxdata/DFTB/3ob-3-1/F-K.skf
   F Mg /cluster/ddu/software/gamess/auxdata/DFTB/3ob-3-1/F-Mg.skf
   F N /cluster/ddu/software/gamess/auxdata/DFTB/3ob-3-1/F-N.skf
   F Na /cluster/ddu/software/gamess/auxdata/DFTB/3ob-3-1/F-Na.skf
   F O /cluster/ddu/software/gamess/auxdata/DFTB/3ob-3-1/F-O.skf
   F P /cluster/ddu/software/gamess/auxdata/DFTB/3ob-3-1/F-P.skf
   F S /cluster/ddu/software/gamess/auxdata/DFTB/3ob-3-1/F-S.skf
   F Zn /cluster/ddu/software/gamess/auxdata/DFTB/3ob-3-1/F-Zn.skf
   H Br /cluster/ddu/software/gamess/auxdata/DFTB/3ob-3-1/H-Br.skf
   H C /cluster/ddu/software/gamess/auxdata/DFTB/3ob-3-1/H-C.skf
   H Ca /cluster/ddu/software/gamess/auxdata/DFTB/3ob-3-1/H-Ca.skf
   H Cl /cluster/ddu/software/gamess/auxdata/DFTB/3ob-3-1/H-Cl.skf
   H F /cluster/ddu/software/gamess/auxdata/DFTB/3ob-3-1/H-F.skf
   H H /cluster/ddu/software/gamess/auxdata/DFTB/3ob-3-1/H-H.skf
   H I /cluster/ddu/software/gamess/auxdata/DFTB/3ob-3-1/H-I.skf
   H K /cluster/ddu/software/gamess/auxdata/DFTB/3ob-3-1/H-K.skf
   H Mg /cluster/ddu/software/gamess/auxdata/DFTB/3ob-3-1/H-Mg.skf
   H N /cluster/ddu/software/gamess/auxdata/DFTB/3ob-3-1/H-N.skf
   H Na /cluster/ddu/software/gamess/auxdata/DFTB/3ob-3-1/H-Na.skf
   H O /cluster/ddu/software/gamess/auxdata/DFTB/3ob-3-1/H-O.skf
   H P /cluster/ddu/software/gamess/auxdata/DFTB/3ob-3-1/H-P.skf
   H S /cluster/ddu/software/gamess/auxdata/DFTB/3ob-3-1/H-S.skf
   H Zn /cluster/ddu/software/gamess/auxdata/DFTB/3ob-3-1/H-Zn.skf
   I Br /cluster/ddu/software/gamess/auxdata/DFTB/3ob-3-1/I-Br.skf
   I C /cluster/ddu/software/gamess/auxdata/DFTB/3ob-3-1/I-C.skf
   I Ca /cluster/ddu/software/gamess/auxdata/DFTB/3ob-3-1/I-Ca.skf
   I Cl /cluster/ddu/software/gamess/auxdata/DFTB/3ob-3-1/I-Cl.skf
   I F /cluster/ddu/software/gamess/auxdata/DFTB/3ob-3-1/I-F.skf
   I H /cluster/ddu/software/gamess/auxdata/DFTB/3ob-3-1/I-H.skf
   I I /cluster/ddu/software/gamess/auxdata/DFTB/3ob-3-1/I-I.skf
   I K /cluster/ddu/software/gamess/auxdata/DFTB/3ob-3-1/I-K.skf
   I Mg /cluster/ddu/software/gamess/auxdata/DFTB/3ob-3-1/I-Mg.skf
   I N /cluster/ddu/software/gamess/auxdata/DFTB/3ob-3-1/I-N.skf
   I Na /cluster/ddu/software/gamess/auxdata/DFTB/3ob-3-1/I-Na.skf
   I O /cluster/ddu/software/gamess/auxdata/DFTB/3ob-3-1/I-O.skf
   I P /cluster/ddu/software/gamess/auxdata/DFTB/3ob-3-1/I-P.skf
   I S /cluster/ddu/software/gamess/auxdata/DFTB/3ob-3-1/I-S.skf
   I Zn /cluster/ddu/software/gamess/auxdata/DFTB/3ob-3-1/I-Zn.skf
   K Br /cluster/ddu/software/gamess/auxdata/DFTB/3ob-3-1/K-Br.skf
   K C /cluster/ddu/software/gamess/auxdata/DFTB/3ob-3-1/K-C.skf
   K Ca /cluster/ddu/software/gamess/auxdata/DFTB/3ob-3-1/K-Ca.skf
   K Cl /cluster/ddu/software/gamess/auxdata/DFTB/3ob-3-1/K-Cl.skf
   K F /cluster/ddu/software/gamess/auxdata/DFTB/3ob-3-1/K-F.skf
   K H /cluster/ddu/software/gamess/auxdata/DFTB/3ob-3-1/K-H.skf
   K I /cluster/ddu/software/gamess/auxdata/DFTB/3ob-3-1/K-I.skf
   K K /cluster/ddu/software/gamess/auxdata/DFTB/3ob-3-1/K-K.skf
   K Mg /cluster/ddu/software/gamess/auxdata/DFTB/3ob-3-1/K-Mg.skf
   K N /cluster/ddu/software/gamess/auxdata/DFTB/3ob-3-1/K-N.skf
   K Na /cluster/ddu/software/gamess/auxdata/DFTB/3ob-3-1/K-Na.skf
   K O /cluster/ddu/software/gamess/auxdata/DFTB/3ob-3-1/K-O.skf
   K P /cluster/ddu/software/gamess/auxdata/DFTB/3ob-3-1/K-P.skf
   K S /cluster/ddu/software/gamess/auxdata/DFTB/3ob-3-1/K-S.skf
   K Zn /cluster/ddu/software/gamess/auxdata/DFTB/3ob-3-1/K-Zn.skf
   Mg Br /cluster/ddu/software/gamess/auxdata/DFTB/3ob-3-1/Mg-Br.skf
   Mg C /cluster/ddu/software/gamess/auxdata/DFTB/3ob-3-1/Mg-C.skf
   Mg Ca /cluster/ddu/software/gamess/auxdata/DFTB/3ob-3-1/Mg-Ca.skf
   Mg Cl /cluster/ddu/software/gamess/auxdata/DFTB/3ob-3-1/Mg-Cl.skf
   Mg F /cluster/ddu/software/gamess/auxdata/DFTB/3ob-3-1/Mg-F.skf
   Mg H /cluster/ddu/software/gamess/auxdata/DFTB/3ob-3-1/Mg-H.skf
   Mg I /cluster/ddu/software/gamess/auxdata/DFTB/3ob-3-1/Mg-I.skf
   Mg K /cluster/ddu/software/gamess/auxdata/DFTB/3ob-3-1/Mg-K.skf
   Mg Mg /cluster/ddu/software/gamess/auxdata/DFTB/3ob-3-1/Mg-Mg.skf
   Mg N /cluster/ddu/software/gamess/auxdata/DFTB/3ob-3-1/Mg-N.skf
   Mg Na /cluster/ddu/software/gamess/auxdata/DFTB/3ob-3-1/Mg-Na.skf
   Mg O /cluster/ddu/software/gamess/auxdata/DFTB/3ob-3-1/Mg-O.skf
   Mg P /cluster/ddu/software/gamess/auxdata/DFTB/3ob-3-1/Mg-P.skf
   Mg S /cluster/ddu/software/gamess/auxdata/DFTB/3ob-3-1/Mg-S.skf
   Mg Zn /cluster/ddu/software/gamess/auxdata/DFTB/3ob-3-1/Mg-Zn.skf
   N Br /cluster/ddu/software/gamess/auxdata/DFTB/3ob-3-1/N-Br.skf
   N C /cluster/ddu/software/gamess/auxdata/DFTB/3ob-3-1/N-C.skf
   N Ca /cluster/ddu/software/gamess/auxdata/DFTB/3ob-3-1/N-Ca.skf
   N Cl /cluster/ddu/software/gamess/auxdata/DFTB/3ob-3-1/N-Cl.skf
   N F /cluster/ddu/software/gamess/auxdata/DFTB/3ob-3-1/N-F.skf
   N H /cluster/ddu/software/gamess/auxdata/DFTB/3ob-3-1/N-H.skf
   N I /cluster/ddu/software/gamess/auxdata/DFTB/3ob-3-1/N-I.skf
   N K /cluster/ddu/software/gamess/auxdata/DFTB/3ob-3-1/N-K.skf
   N Mg /cluster/ddu/software/gamess/auxdata/DFTB/3ob-3-1/N-Mg.skf
   N N /cluster/ddu/software/gamess/auxdata/DFTB/3ob-3-1/N-N.skf
   N Na /cluster/ddu/software/gamess/auxdata/DFTB/3ob-3-1/N-Na.skf
   N O /cluster/ddu/software/gamess/auxdata/DFTB/3ob-3-1/N-O.skf
   N P /cluster/ddu/software/gamess/auxdata/DFTB/3ob-3-1/N-P.skf
   N S /cluster/ddu/software/gamess/auxdata/DFTB/3ob-3-1/N-S.skf
   N Zn /cluster/ddu/software/gamess/auxdata/DFTB/3ob-3-1/N-Zn.skf
   Na Br /cluster/ddu/software/gamess/auxdata/DFTB/3ob-3-1/Na-Br.skf
   Na C /cluster/ddu/software/gamess/auxdata/DFTB/3ob-3-1/Na-C.skf
   Na Ca /cluster/ddu/software/gamess/auxdata/DFTB/3ob-3-1/Na-Ca.skf
   Na Cl /cluster/ddu/software/gamess/auxdata/DFTB/3ob-3-1/Na-Cl.skf
   Na F /cluster/ddu/software/gamess/auxdata/DFTB/3ob-3-1/Na-F.skf
   Na H /cluster/ddu/software/gamess/auxdata/DFTB/3ob-3-1/Na-H.skf
   Na I /cluster/ddu/software/gamess/auxdata/DFTB/3ob-3-1/Na-I.skf
   Na K /cluster/ddu/software/gamess/auxdata/DFTB/3ob-3-1/Na-K.skf
   Na Mg /cluster/ddu/software/gamess/auxdata/DFTB/3ob-3-1/Na-Mg.skf
   Na N /cluster/ddu/software/gamess/auxdata/DFTB/3ob-3-1/Na-N.skf
   Na Na /cluster/ddu/software/gamess/auxdata/DFTB/3ob-3-1/Na-Na.skf
   Na O /cluster/ddu/software/gamess/auxdata/DFTB/3ob-3-1/Na-O.skf
   Na P /cluster/ddu/software/gamess/auxdata/DFTB/3ob-3-1/Na-P.skf
   Na S /cluster/ddu/software/gamess/auxdata/DFTB/3ob-3-1/Na-S.skf
   Na Zn /cluster/ddu/software/gamess/auxdata/DFTB/3ob-3-1/Na-Zn.skf
   O Br /cluster/ddu/software/gamess/auxdata/DFTB/3ob-3-1/O-Br.skf
   O C /cluster/ddu/software/gamess/auxdata/DFTB/3ob-3-1/O-C.skf
   O Ca /cluster/ddu/software/gamess/auxdata/DFTB/3ob-3-1/O-Ca.skf
   O Cl /cluster/ddu/software/gamess/auxdata/DFTB/3ob-3-1/O-Cl.skf
   O F /cluster/ddu/software/gamess/auxdata/DFTB/3ob-3-1/O-F.skf
   O H /cluster/ddu/software/gamess/auxdata/DFTB/3ob-3-1/O-H.skf
   O I /cluster/ddu/software/gamess/auxdata/DFTB/3ob-3-1/O-I.skf
   O K /cluster/ddu/software/gamess/auxdata/DFTB/3ob-3-1/O-K.skf
   O Mg /cluster/ddu/software/gamess/auxdata/DFTB/3ob-3-1/O-Mg.skf
   O N /cluster/ddu/software/gamess/auxdata/DFTB/3ob-3-1/O-N.skf
   O Na /cluster/ddu/software/gamess/auxdata/DFTB/3ob-3-1/O-Na.skf
   O O /cluster/ddu/software/gamess/auxdata/DFTB/3ob-3-1/O-O.skf
   O P /cluster/ddu/software/gamess/auxdata/DFTB/3ob-3-1/O-P.skf
   O S /cluster/ddu/software/gamess/auxdata/DFTB/3ob-3-1/O-S.skf
   O Zn /cluster/ddu/software/gamess/auxdata/DFTB/3ob-3-1/O-Zn.skf
   P Br /cluster/ddu/software/gamess/auxdata/DFTB/3ob-3-1/P-Br.skf
   P C /cluster/ddu/software/gamess/auxdata/DFTB/3ob-3-1/P-C.skf
   P Ca /cluster/ddu/software/gamess/auxdata/DFTB/3ob-3-1/P-Ca.skf
   P Cl /cluster/ddu/software/gamess/auxdata/DFTB/3ob-3-1/P-Cl.skf
   P F /cluster/ddu/software/gamess/auxdata/DFTB/3ob-3-1/P-F.skf
   P H /cluster/ddu/software/gamess/auxdata/DFTB/3ob-3-1/P-H.skf
   P I /cluster/ddu/software/gamess/auxdata/DFTB/3ob-3-1/P-I.skf
   P K /cluster/ddu/software/gamess/auxdata/DFTB/3ob-3-1/P-K.skf
   P Mg /cluster/ddu/software/gamess/auxdata/DFTB/3ob-3-1/P-Mg.skf
   P N /cluster/ddu/software/gamess/auxdata/DFTB/3ob-3-1/P-N.skf
   P Na /cluster/ddu/software/gamess/auxdata/DFTB/3ob-3-1/P-Na.skf
   P O /cluster/ddu/software/gamess/auxdata/DFTB/3ob-3-1/P-O.skf
   P P /cluster/ddu/software/gamess/auxdata/DFTB/3ob-3-1/P-P.skf
   P S /cluster/ddu/software/gamess/auxdata/DFTB/3ob-3-1/P-S.skf
   P Zn /cluster/ddu/software/gamess/auxdata/DFTB/3ob-3-1/P-Zn.skf
   S Br /cluster/ddu/software/gamess/auxdata/DFTB/3ob-3-1/S-Br.skf
   S C /cluster/ddu/software/gamess/auxdata/DFTB/3ob-3-1/S-C.skf
   S Ca /cluster/ddu/software/gamess/auxdata/DFTB/3ob-3-1/S-Ca.skf
   S Cl /cluster/ddu/software/gamess/auxdata/DFTB/3ob-3-1/S-Cl.skf
   S F /cluster/ddu/software/gamess/auxdata/DFTB/3ob-3-1/S-F.skf
   S H /cluster/ddu/software/gamess/auxdata/DFTB/3ob-3-1/S-H.skf
   S I /cluster/ddu/software/gamess/auxdata/DFTB/3ob-3-1/S-I.skf
   S K /cluster/ddu/software/gamess/auxdata/DFTB/3ob-3-1/S-K.skf
   S Mg /cluster/ddu/software/gamess/auxdata/DFTB/3ob-3-1/S-Mg.skf
   S N /cluster/ddu/software/gamess/auxdata/DFTB/3ob-3-1/S-N.skf
   S Na /cluster/ddu/software/gamess/auxdata/DFTB/3ob-3-1/S-Na.skf
   S O /cluster/ddu/software/gamess/auxdata/DFTB/3ob-3-1/S-O.skf
   S P /cluster/ddu/software/gamess/auxdata/DFTB/3ob-3-1/S-P.skf
   S S /cluster/ddu/software/gamess/auxdata/DFTB/3ob-3-1/S-S.skf
   S Zn /cluster/ddu/software/gamess/auxdata/DFTB/3ob-3-1/S-Zn.skf
   Zn Br /cluster/ddu/software/gamess/auxdata/DFTB/3ob-3-1/Zn-Br.skf
   Zn C /cluster/ddu/software/gamess/auxdata/DFTB/3ob-3-1/Zn-C.skf
   Zn Ca /cluster/ddu/software/gamess/auxdata/DFTB/3ob-3-1/Zn-Ca.skf
   Zn Cl /cluster/ddu/software/gamess/auxdata/DFTB/3ob-3-1/Zn-Cl.skf
   Zn F /cluster/ddu/software/gamess/auxdata/DFTB/3ob-3-1/Zn-F.skf
   Zn H /cluster/ddu/software/gamess/auxdata/DFTB/3ob-3-1/Zn-H.skf
   Zn I /cluster/ddu/software/gamess/auxdata/DFTB/3ob-3-1/Zn-I.skf
   Zn K /cluster/ddu/software/gamess/auxdata/DFTB/3ob-3-1/Zn-K.skf
   Zn Mg /cluster/ddu/software/gamess/auxdata/DFTB/3ob-3-1/Zn-Mg.skf
   Zn N /cluster/ddu/software/gamess/auxdata/DFTB/3ob-3-1/Zn-N.skf
   Zn Na /cluster/ddu/software/gamess/auxdata/DFTB/3ob-3-1/Zn-Na.skf
   Zn O /cluster/ddu/software/gamess/auxdata/DFTB/3ob-3-1/Zn-O.skf
   Zn P /cluster/ddu/software/gamess/auxdata/DFTB/3ob-3-1/Zn-P.skf
   Zn S /cluster/ddu/software/gamess/auxdata/DFTB/3ob-3-1/Zn-S.skf
   Zn Zn /cluster/ddu/software/gamess/auxdata/DFTB/3ob-3-1/Zn-Zn.skf
 $END
 $FMO
      SCFTYP(1)=RHF
      MODGRD=10
      MODMUL=0
      respap=0
      resppc=4
      NBODY=2
      MAXCAO=5
      MAXBND=72
      NLAYER=1
      NFRAG=88
      ICHARG(1)=    0,  1,  0,  0,  0,  0,  0, -1, -1,  0, 
                    0,  1,  0,  0,  0,  0,  1,  0, -1,  0, 
                    0,  0, -1,  0,  0,  0,  0,  0,  0,  0, 
                    0,  0,  0,  0,  1,  0, -1,  0,  0,  0, 
                    0, -1,  0,  0, -1,  0,  0,  0,  0, -1, 
                    1,  0,  0,  1, -1,  1, -1,  0,  0,  0, 
                    0,  0,  0,  0,  1,  0,  1,  0,  0,  0, 
                    0,  1,  0,  0, -1,  0,  0,  0,  0,  1, 
                    0,  0,  0,  0,  0,  0,  0,  0
      FRGNAM(1)= GLNA616, LYSA617, VALA618, ILEA619, GLYA620, 
                 ALAA621, GLYA622, GLUA623, GLUA626, VALA627, 
                 TYRA628, LYSA629, GLYA630, VALA643, ALAA644, 
                 ILEA645, LYSA646, THRA647, ASPA659, PHEA660, 
                 LEUA661, GLYA662, GLUA663, ALAA664, GLYA665, 
                 ILEA666, META667, GLYA668, GLNA669, PHEA670, 
                 SERA671, ASNA674, ILEA675, ILEA676, ARGA677, 
                 LEUA678, GLUA679, META689, ILEA690, ILEA691, 
                 THRA692, GLUA693, TYRA694, META695, GLUA696, 
                 ASNA697, GLYA698, ALAA699, LEUA700, ASPA701, 
                 LYSA702, PHEA703, LEUA704, ARGA705, GLUA706, 
                 LYSA707, ASPA708, TYRA729, LEUA730, ALAA731, 
                 ASNA734, TYRA735, VALA736, HISA737, ARGA738, 
                 ALAA742, ARGA743, ASNA744, ILEA745, LEUA746, 
                 VALA747, LYSA754, VALA755, SERA756, ASPA757, 
                 PHEA758, GLYA759, LEUA760, SERA761, ARGA762, 
                 VALA763, HOHA900, HOHA903, HOHA905, HOHA906, 
                 HOHA907, HOHA909, LIG
      INDAT(1)= 0
                1      2      5    -18      0
                3      4     19     20     23    -40      0
               21     22     41     42     45    -56      0
               43     44     57     58     61    -75      0
               59     60     76     77     80    -82      0
               78     79     83     84     87    -92      0
               85     86     93     94     97    -99      0
               95     96    100   -115      0
              116    117    120   -131      0
              118    119    132    133    136   -147      0
              134    135    148    149    152   -168      0
              150    151    169    170    173   -190      0
              171    172    191   -198      0
              199    200    203   -215      0
              201    202    216    217    220   -225      0
              218    219    226    227    230   -244      0
              228    229    245    246    249   -266      0
              247    248    267   -281      0
              282    283    286   -294      0
              284    285    295    296    299   -314      0
              297    298    315    316    319   -333      0
              317    318    334    335    338   -340      0
              336    337    341    342    345   -355      0
              343    344    356    357    360   -365      0
              358    359    366    367    370   -372      0
              368    369    373    374    377   -391      0
              375    376    392    393    396   -408      0
              394    395    409    410    413   -415      0
              411    412    416    417    420   -432      0
              418    419    433    434    437   -452      0
              435    436    453   -464      0
              465    466    469   -479      0
              467    468    480    481    484   -498      0
              482    483    499    500    503   -517      0
              501    502    518    519    522   -541      0
              520    521    542    543    546   -560      0
              544    545    561   -576      0
              577    578    581   -594      0
              579    580    595    596    599   -613      0
              597    598    614    615    618   -632      0
              616    617    633    634    637   -646      0
              635    636    647    648    651   -661      0
              649    650    662    663    666   -682      0
              664    665    683    684    687   -699      0
              685    686    700    701    704   -714      0
              702    703    715    716    719   -728      0
              717    718    729    730    733   -735      0
              731    732    736    737    740   -745      0
              738    739    746    747    750   -764      0
              748    749    765    766    769   -776      0
              767    768    777    778    781   -798      0
              779    780    799    800    803   -818      0
              801    802    819    820    823   -837      0
              821    822    838    839    842   -861      0
              840    841    862    863    866   -876      0
              864    865    877    878    881   -898      0
              879    880    899   -911      0
              912    913    916   -933      0
              914    915    934    935    938   -952      0
              936    937    953   -963      0
              964    965    968   -978      0
              966    967    979    980    983   -999      0
              981    982   1000   1001   1004  -1015      0
             1002   1003   1016   1017   1020  -1032      0
             1018   1019   1033  -1057      0
             1058   1059   1062  -1068      0
             1060   1061   1069   1070   1073  -1092      0
             1071   1072   1093   1094   1097  -1106      0
             1095   1096   1107   1108   1111  -1125      0
             1109   1110   1126   1127   1130  -1144      0
             1128   1129   1145  -1161      0
             1162   1163   1166  -1184      0
             1164   1165   1185   1186   1189  -1200      0
             1187   1188   1201   1202   1205  -1211      0
             1203   1204   1212   1213   1216  -1223      0
             1214   1215   1224   1225   1228  -1243      0
             1226   1227   1244   1245   1248  -1250      0
             1246   1247   1251   1252   1255  -1269      0
             1253   1254   1270   1271   1274  -1280      0
             1272   1273   1281   1282   1285  -1304      0
             1283   1284   1305  -1321      0
             1322  -1324      0
             1325  -1327      0
             1328  -1330      0
             1331  -1333      0
             1334  -1336      0
             1337  -1339      0
             1340  -1398      0
 $END
 $FMOLMO
 DFTB-C 4 4
   1 0  0.558756  0.000000  0.000000  0.829332
   0 1  0.558757  0.781901  0.000000 -0.276445
   0 1  0.558756 -0.390951  0.677146 -0.276445
   0 1  0.558756 -0.390951 -0.677146 -0.276445
 $END
 $FMOBND
        -2         3  DFTB-C
       -20        21  DFTB-C
       -42        43  DFTB-C
       -58        59  DFTB-C
       -77        78  DFTB-C
       -84        85  DFTB-C
       -94        95  DFTB-C
      -117       118  DFTB-C
      -133       134  DFTB-C
      -149       150  DFTB-C
      -170       171  DFTB-C
      -200       201  DFTB-C
      -217       218  DFTB-C
      -227       228  DFTB-C
      -246       247  DFTB-C
      -283       284  DFTB-C
      -296       297  DFTB-C
      -316       317  DFTB-C
      -335       336  DFTB-C
      -342       343  DFTB-C
      -357       358  DFTB-C
      -367       368  DFTB-C
      -374       375  DFTB-C
      -393       394  DFTB-C
      -410       411  DFTB-C
      -417       418  DFTB-C
      -434       435  DFTB-C
      -466       467  DFTB-C
      -481       482  DFTB-C
      -500       501  DFTB-C
      -519       520  DFTB-C
      -543       544  DFTB-C
      -578       579  DFTB-C
      -596       597  DFTB-C
      -615       616  DFTB-C
      -634       635  DFTB-C
      -648       649  DFTB-C
      -663       664  DFTB-C
      -684       685  DFTB-C
      -701       702  DFTB-C
      -716       717  DFTB-C
      -730       731  DFTB-C
      -737       738  DFTB-C
      -747       748  DFTB-C
      -766       767  DFTB-C
      -778       779  DFTB-C
      -800       801  DFTB-C
      -820       821  DFTB-C
      -839       840  DFTB-C
      -863       864  DFTB-C
      -878       879  DFTB-C
      -913       914  DFTB-C
      -935       936  DFTB-C
      -965       966  DFTB-C
      -980       981  DFTB-C
     -1001      1002  DFTB-C
     -1017      1018  DFTB-C
     -1059      1060  DFTB-C
     -1070      1071  DFTB-C
     -1094      1095  DFTB-C
     -1108      1109  DFTB-C
     -1127      1128  DFTB-C
     -1163      1164  DFTB-C
     -1186      1187  DFTB-C
     -1202      1203  DFTB-C
     -1213      1214  DFTB-C
     -1225      1226  DFTB-C
     -1245      1246  DFTB-C
     -1252      1253  DFTB-C
     -1271      1272  DFTB-C
     -1282      1283  DFTB-C
 $END
 $DATA
 FMO calculation : 5I9Y_1N1_A_1_FMO_5_H.pdb
 C1 
 C    6
 O    8
 H    1
 N    7
 S   16
 F    9
 P   15
 Cl  17
 Br  35
 I   53
 $END
 $FMOXYZ
      1      N            6.219      -19.197      -13.393
      2      C            7.406      -18.969      -14.223
      3      C            8.613      -18.448      -13.428
      4      O            9.743      -18.825      -13.733
      5      C            7.047      -17.969      -15.339
      6      C            6.039      -18.528      -16.362
      7      C            5.702      -17.513      -17.453
      8      N            5.592      -17.977      -18.700
      9      O            5.534      -16.326      -17.180
     10      H            5.528      -19.659      -13.967
     11      H            5.784      -18.379      -12.987
     12      H            7.729      -19.898      -14.697
     13      H            6.659      -17.050      -14.896
     14      H            7.954      -17.682      -15.874
     15      H            6.437      -19.439      -16.811
     16      H            5.107      -18.804      -15.868
     17      H            5.732      -18.958      -18.889
     18      H            5.363      -17.345      -19.453
     19      N            8.386      -17.564      -12.443
     20      C            9.423      -16.845      -11.703
     21      C            8.886      -16.444      -10.330
     22      O            7.786      -15.910      -10.254
     23      C            9.925      -15.648      -12.552
     24      C           10.771      -14.607      -11.792
     25      C           11.354      -13.520      -12.708
     26      C           11.970      -12.345      -11.931
     27      N           13.143      -12.760      -11.142
     28      H            7.429      -17.305      -12.245
     29      H           10.265      -17.520      -11.531
     30      H           10.503      -16.032      -13.393
     31      H            9.067      -15.134      -12.991
     32      H           10.151      -14.120      -11.039
     33      H           11.577      -15.111      -11.257
     34      H           12.091      -13.956      -13.383
     35      H           10.557      -13.128      -13.341
     36      H           12.281      -11.565      -12.626
     37      H           11.232      -11.897      -11.264
     38      H           12.862      -13.450      -10.460
     39      H           13.842      -13.155      -11.755
     40      H           13.529      -11.957      -10.666
     41      N            9.686      -16.625       -9.266
     42      C            9.397      -16.143       -7.912
     43      C            9.669      -14.624       -7.856
     44      O           10.696      -14.153       -8.348
     45      C           10.299      -16.895       -6.891
     46      C           10.066      -16.440       -5.435
     47      C           10.101      -18.421       -6.962
     48      H           10.586      -17.058       -9.412
     49      H            8.351      -16.344       -7.672
     50      H           11.343      -16.691       -7.137
     51      H           10.681      -17.012       -4.740
     52      H           10.314      -15.390       -5.282
     53      H            9.025      -16.584       -5.148
     54      H           10.764      -18.935       -6.266
     55      H            9.079      -18.688       -6.697
     56      H           10.308      -18.822       -7.954
     57      N            8.737      -13.881       -7.240
     58      C            8.746      -12.422       -7.062
     59      C            8.557      -12.015       -5.585
     60      O            8.776      -10.854       -5.240
     61      C            7.727      -11.749       -8.027
     62      C            6.277      -12.236       -7.787
     63      C            8.155      -11.912       -9.499
     64      C            5.212      -11.551       -8.650
     65      H            7.925      -14.367       -6.880
     66      H            9.737      -12.044       -7.320
     67      H            7.747      -10.678       -7.821
     68      H            6.217      -13.308       -7.962
     69      H            6.011      -12.082       -6.741
     70      H            7.568      -11.273      -10.158
     71      H            9.200      -11.633       -9.638
     72      H            8.037      -12.941       -9.841
     73      H            4.208      -11.857       -8.359
     74      H            5.269      -10.471       -8.552
     75      H            5.329      -11.807       -9.701
     76      N            8.185      -12.969       -4.718
     77      C            8.074      -12.837       -3.271
     78      C            8.104      -14.231       -2.637
     79      O            7.727      -15.207       -3.285
     80      H            8.011      -13.895       -5.084
     81      H            8.894      -12.233       -2.879
     82      H            7.138      -12.339       -3.016
     83      N            8.549      -14.337       -1.376
     84      C            8.687      -15.608       -0.665
     85      C            8.509      -15.463        0.848
     86      O            8.991      -14.503        1.450
     87      C           10.002      -16.307       -1.051
     88      H            8.833      -13.503       -0.881
     89      H            7.879      -16.262       -0.993
     90      H           10.107      -17.261       -0.533
     91      H           10.042      -16.514       -2.121
     92      H           10.867      -15.694       -0.796